! B3LYP def2-SVP TightSCF CPCM(Water)

* xyz 0 1
O           -0.05962955630528        1.23194874244874        0.57970650892727
C            0.05796169621930        0.18398246219729       -0.00429693868751
O           -0.98363062451232       -0.57171120424890       -0.38812038638856
C           -2.27165525455634       -0.07194771501955       -0.06357321694970
C            1.33690738260037       -0.44295348217351       -0.40081060677715
C            2.49660500110459        0.13517423362484       -0.12502833399995
H           -2.43050287925796       -0.10954310329577        1.01626292500533
H           -2.98635190890448       -0.71150589996227       -0.57497842836295
H           -2.37153382669829        0.96328774560719       -0.39603406877901
H            1.25270278862284       -1.38540615927923       -0.92007573036135
H            3.44006512282755       -0.30112222302817       -0.40421081818745
H            2.51906205886002        1.07979460312933        0.39401509456104
*
