! B3LYP def2-SVP TightSCF CPCM(Water)

* xyz 0 1
O            0.27292335878697        1.44960657067952        1.16357525721931
C           -0.12728411555573        0.58131337075717        0.42772096308367
O            0.67925031898047       -0.32832869940988       -0.14065801546151
C            2.05807648220993       -0.21429481105030        0.17434622510596
C           -1.54840180958874        0.40507237258652        0.05775407744729
C           -1.98958622104530       -0.54636328963491       -0.75171793794764
H            2.55122607995516       -1.05342149639011       -0.30937747978321
H            2.45632320668785        0.73124092060515       -0.19967864002930
H            2.20559342343651       -0.25195943488582        1.25554879410921
H           -2.20846733579555        1.13032564298898        0.51136801840350
H           -3.03427527641168       -0.64239844239458       -0.99600188432846
H           -1.31537711165988       -1.26079170385175       -1.19288037781882
*
