! B3LYP def2-SVP TightSCF CPCM(Water)

* xyz 0 1
O            7.79312788696098       -2.69677385013522        0.83435714484905
C            7.27299901623312       -1.39295162045813        0.72107431493551
C            5.77061701608965       -1.51593860978112        0.48084971625568
O            5.25221541425339       -0.21084601256098        0.34499457257575
C            3.92304213558650       -0.05163880447041        0.13091200337804
C            3.48024448853881        1.27023605834216        0.00711123334089
C            2.15320763572654        1.55015813628922       -0.20929487069795
C            1.20715646576919        0.52144902169297       -0.31304563601269
C           -0.20265000737931        0.74690939627619       -0.53593645352998
C           -0.81328963144481        1.93871164916303       -0.64532790504531
C           -2.24071210632957        2.16899053471861       -0.84090029350311
C           -3.16165062531454        0.93433364238812       -1.04803830910669
O           -4.41046166608728        1.45191211230248       -1.44025821545929
C           -5.45004811546131        0.50120790347649       -1.51509422237602
O           -2.65915045741179        0.03703980800155       -2.01768263819586
C           -2.45297045889613        0.61707878417002       -3.28967043874004
C           -3.24770391846889        0.21883177697109        0.29178208908315
C           -2.99657569767384       -1.14068240383254        0.41365814822045
C           -3.09463682959668       -1.75397732043229        1.65029265065589
C           -3.44935371415799       -1.01768760102753        2.76765934834553
C           -3.71714600166463        0.33549466328897        2.64445081526064
C           -3.61867901921491        0.95404153475524        1.41125559509684
O           -2.71238779073538        3.28399306460666       -0.79918468997320
C            1.66402808907897       -0.79340519416063       -0.18924395204879
C            2.99531900309833       -1.08559631334793        0.02890701817518
H            8.74259967025743       -2.64375500875041        0.98380625986911
H            7.44440817509476       -0.81464692091444        1.63866462531324
H            7.72726536873821       -0.85402644309933       -0.12093963685819
H            5.31233680661706       -2.03729522674573        1.33048351713242
H            5.60099022653970       -2.10530716778257       -0.42899205904989
H            4.21120329752736        2.05933242769365        0.08757711310975
H            1.84288515256414        2.57871271116507       -0.30056603437657
H           -0.79685266086482       -0.15181506962610       -0.61657722511180
H           -0.25476013142144        2.86214947009981       -0.56330031602391
H           -6.29433880846320        1.02268202580095       -1.96108262259182
H           -5.72665125251106        0.13322380751650       -0.52127506653629
H           -5.16531813313552       -0.34879719349609       -2.14301813749098
H           -3.33654128291257        1.17052042422653       -3.61684375277798
H           -2.26065117572747       -0.21136217851872       -3.96861525870131
H           -1.59167005494511        1.29345016763201       -3.27858313618898
H           -2.73454090761011       -1.71094383991226       -0.46405785826463
H           -2.89825687815936       -2.81249406375566        1.73926732836168
H           -3.52341867574727       -1.49877905490171        3.73183929948648
H           -4.00354530560001        0.91203342970828        3.51148209062605
H           -3.83601348084113        2.00637531917186        1.30504556469597
H            0.95425614275531       -1.60452445861875       -0.26509065197673
H            3.30207179634659       -2.11562851313221        0.11826193186217
*
