! B3LYP def2-SVP TightSCF CPCM(Water)

* xyz 0 1
O            7.92048835543383        0.37588770036258        2.26488591045267
C            7.56861205338553       -0.88035406566040        1.75808249057962
C            6.44137900284334       -0.83227768836684        0.72271439926185
O            5.25764502579004       -0.43863091711018        1.37971531172029
C            4.10638707307263       -0.34150523578773        0.67428695949283
C            2.98009908143593        0.05739009221035        1.40354907415026
C            1.75618536119378        0.17980536303993        0.79389823518921
C            1.60127606086123       -0.09230041731223       -0.57259771816850
C            0.33360021988185        0.00093310958959       -1.25446197232908
C           -0.84304701973462        0.39226332289289       -0.73583655468157
C           -2.04939544920469        0.41075701263548       -1.55807351570205
C           -3.30216536328117        0.89611535223076       -0.78419969792511
O           -4.31460926388706        1.14405071153913       -1.72233036202471
C           -5.58146551382947        1.42003234036459       -1.16173099394925
O           -3.02847203271167        2.04009287043583       -0.00187258713022
C           -2.59518591400757        3.15760508155180       -0.75163550157138
C           -3.62184268550611       -0.27072640786098        0.13630337818143
C           -3.43346673237971       -0.19408044250229        1.50842744295575
C           -3.70728137656773       -1.29372373821232        2.30312098064892
C           -4.16615957004193       -2.46933381485121        1.73407966650941
C           -4.35496340134138       -2.54573305693179        0.36367153310751
C           -4.07995564122303       -1.45199075708500       -0.43589569897254
O           -2.11080376054770        0.02579372176016       -2.70309811592883
C            2.73413140493302       -0.48462325531318       -1.28952543108751
C            3.96992604834161       -0.60797607457529       -0.68614913202409
H            8.12807941451281        0.97146294704079        1.53560212770695
H            7.23917633418504       -1.46316542640294        2.62024310409039
H            8.43680292132737       -1.37691436949816        1.29822760551032
H            6.32251549185919       -1.82885172692775        0.27589244422758
H            6.69363905568586       -0.11406781942517       -0.07250409790737
H            3.10551229575947        0.26145817940475        2.45506771071926
H            0.90360855507502        0.48339087133210        1.38007473543366
H            0.33397134679677       -0.28384637510476       -2.30069910042938
H           -0.95609272744239        0.70805370165484        0.28893185179577
H           -6.21034476187422        1.73505452111416       -1.99175361269582
H           -6.01018335327187        0.52986644629484       -0.68949790610497
H           -5.51804828016630        2.22048759035445       -0.41829149335271
H           -2.59995989621813        4.00031645486487       -0.06294547999413
H           -1.58304396478706        3.00282449370865       -1.14161749069573
H           -3.27034856716039        3.35589842151247       -1.58790415915421
H           -3.08771150923358        0.72973206645797        1.94441538291852
H           -3.56185580998183       -1.23070901043078        3.37166836399243
H           -4.37649266170305       -3.32589626912203        2.35756050598585
H           -4.71276460718749       -3.46101259151081       -0.08395622152146
H           -4.21504875271706       -1.49810247046055       -1.50648323209454
H            2.64136790731170       -0.69799889446029       -2.34457424828357
H            4.81630960631876       -0.91544954743165       -1.28049789090433
*
