! B3LYP def2-SVP TightSCF CPCM(Water)

* xyz 0 1
O            7.93077209866995       -0.97808909742863       -0.57383723104320
C            7.20641945564028       -0.97202210713493       -1.77285160493279
C            5.71336454181343       -1.21384352216506       -1.53942018731780
O            5.23011071156312       -0.09778103056827       -0.81351359332133
C            3.91828478859181       -0.04316834169743       -0.47532401076844
C            2.97109755184371       -1.01703825283772       -0.77995009203526
C            1.65997981411677       -0.84520759465437       -0.38402477827855
C            1.24529228052582        0.28594157773397        0.32379373910304
C           -0.14598432345814        0.39780060521674        0.69927087937173
C           -0.70679647393573        1.40331144752136        1.39120035622942
C           -2.11605110422184        1.53225621833455        1.74911616568604
C           -3.08125963108382        0.38251581942744        1.34808628292924
O           -4.30401491556171        0.67103362202949        1.98210921749076
C           -5.37820489546729       -0.16326747840906        1.60656343664397
O           -2.59922507978315       -0.88921401161043        1.73510803384009
C           -2.34737830868503       -1.01216633527531        3.12048368741075
C           -3.21300220195156        0.42467559735445       -0.16673023731396
C           -3.02601034703486       -0.70471205596570       -0.95127923997161
C           -3.16706106179221       -0.62282567645246       -2.32553330150939
C           -3.50102390777014        0.58105525548991       -2.92174088215849
C           -3.70421067905791        1.70517822942619       -2.13860681528774
C           -3.56264004781292        1.62950261853289       -0.76489623489522
O           -2.53934720114073        2.52537294704190        2.29798186174564
C            2.21135288677593        1.25530987556797        0.62362987802710
C            3.51850071067531        1.09476939118472        0.23316943585191
H            7.52916512624773       -0.32817034710692        0.01588306569081
H            7.33054045577667       -0.01551208138225       -2.29968399730953
H            7.61728999114842       -1.77512894036778       -2.38758956227084
H            5.57471913110719       -2.13446414019447       -0.95835747707479
H            5.19448559929549       -1.30518582671449       -2.50161484905460
H            3.24616514194584       -1.90723223155317       -1.32344994489288
H            0.93412979083587       -1.60744841460059       -0.62777391988093
H           -0.76838891969094       -0.42590499996452        0.38071074873476
H           -0.11724270725543        2.24401585877225        1.73334433507871
H           -6.19625199137520        0.09008242328524        2.27738828357607
H           -5.11765033974606       -1.21996726436416        1.72141018134305
H           -5.68086396313785        0.01875351078834        0.56987584796216
H           -1.45476120182883       -0.44695903908711        3.40916154487344
H           -3.19860923207843       -0.65808370932431        3.70686417736776
H           -2.18557215756795       -2.07274824195893        3.30288285418718
H           -2.77985945834621       -1.64264348507832       -0.47803016456804
H           -3.02130294283830       -1.50503403681702       -2.93182325923676
H           -3.60925215562508        0.64219434064280       -3.99465043291062
H           -3.97408070214724        2.64430455755528       -2.59827476336957
H           -3.73091638148815        2.49810336908040       -0.14583606286135
H            1.93292413963348        2.14473016069829        1.16560828849793
H            4.26237011567787        1.84214183702247        0.46115034062512
*
