! B3LYP def2-SVP TightSCF CPCM(Water)

* xyz 0 1
C           -6.15757687068946       -4.18185765007712        0.83141634061761
C           -6.32321826531989       -2.89149046997516        1.08247250443019
C           -5.31418312972419       -1.85506251432597        0.78383764613470
O           -5.43776353846528       -0.69156301541578        1.07132504264102
O           -4.23428981047635       -2.34850312005326        0.14745249617935
C           -3.21921609292812       -1.42292069671907       -0.20042941842771
C           -2.43932890322623       -0.95476728730181        1.03654238964458
N           -1.14854732137550       -0.38965133071416        0.66786942252703
C           -1.14274755933528        0.89962440048271        0.16994235086106
O           -2.14781525681928        1.54229229819306        0.02588780863678
N            0.10773320769784        1.39315691275473       -0.16010315025164
C            0.17771262743936        2.75826034268989       -0.66065523989047
C            0.34295177520649        3.74993389071819        0.48910840380393
O            0.40533430355648        5.05176860409696       -0.07130162085334
C            0.63584752735208        6.05046163591232        0.79984411616370
O            0.78674983350295        5.86695932949435        1.98189995692737
C            0.68695311560401        7.37719651028881        0.15285994461665
C            0.50321948334856        7.57624035629192       -1.14412936706618
C            1.29565877619532        0.70220687182411       -0.02152284552696
O            2.36073510671633        1.17812573620532       -0.31575800124822
N            1.16671610180358       -0.58166971615839        0.47522285262174
C            2.38036139314273       -1.37356938978823        0.61486864345215
C            2.65299413720432       -2.17799903671211       -0.65405296750308
O            3.83998736773385       -2.92742244232403       -0.44690620271791
C            4.29007477404690       -3.62022680323026       -1.50937774171080
O            3.73889654789284       -3.61774801855214       -2.58067626788850
C            5.52227389975189       -4.35879991735445       -1.16869912475932
C            6.14502782006549       -5.10423418590047       -2.07002644859567
C           -0.02915819275394       -1.18712007053844        0.81476132356324
O           -0.08454549432237       -2.31851772519021        1.22056241942481
H           -5.25353749629023       -4.55087820616574        0.37837226869368
H           -6.91737126183130       -4.90604437240723        1.07212856964272
H           -7.22037087965851       -2.50251383326794        1.54162728565885
H           -2.55911904072416       -1.96660966232707       -0.88035744793070
H           -3.66043021417226       -0.55714200385399       -0.70558304106750
H           -2.24626470299990       -1.81032469221940        1.68703443469769
H           -3.01615348822595       -0.19297801357544        1.56458059744330
H            1.03389034581479        2.83057053404486       -1.33318087882215
H           -0.74835750851871        2.97103385097738       -1.19701434935143
H            1.26376139381841        3.54700504865266        1.04908498760237
H           -0.50737104099477        3.68824528566287        1.17878501523904
H            0.88693398228541        8.18735829018368        0.83929115143933
H            0.30494451993346        6.75567404225951       -1.81248036674173
H            0.54703155718123        8.56194037044034       -1.57585989474160
H            3.21037590055409       -0.69100175795016        0.80299875111151
H            2.24886666654276       -2.05409963615105        1.45751866097800
H            2.78590438441606       -1.51361064602594       -1.51631108395628
H            1.82211565726885       -2.86245173171881       -0.86339205638237
H            5.86542357628600       -4.24649198259975       -0.15196088384415
H            7.04332194066193       -5.65195180708148       -1.84381200506410
H            5.75556934583107       -5.17882957550938       -3.07241598041451
*
