! B3LYP def2-SVP TightSCF CPCM(Water)

* xyz 0 1
C            1.25647900163678        7.34552845458855        1.21273040318986
C            1.05106525468187        7.09088146481822       -0.07120680170470
C            0.78444357181327        5.74253532314757       -0.61312469650131
O            0.59223494454250        5.50729602325541       -1.77963909547098
O            0.77779912990056        4.78898924677797        0.33598759537848
C            0.52451736100947        3.46940802715042       -0.12032047099590
C            0.60972146872506        2.54013800630955        1.08871791469122
N            0.32517854921332        1.16286963638019        0.71221058450980
C           -0.99105837694261        0.74348528467508        0.77939002031217
O           -1.88299477552414        1.46711120581316        1.13768585898769
N           -1.19669754476364       -0.57710335696010        0.43206562199324
C           -2.55822580635897       -1.08859266988528        0.49247111408377
C           -3.26248363039801       -0.92476488143640       -0.85282100138983
O           -4.56341140591531       -1.47699427677136       -0.72651822457826
C           -5.33603619672469       -1.40110645420161       -1.82548140980753
O           -4.96495100730283       -0.89127088775601       -2.85288391549280
C           -6.67114243214511       -2.00300288081568       -1.63303215511168
C           -7.06548709137705       -2.58912159468190       -0.51214463080389
C           -0.21366109374929       -1.44699406925732       -0.00851843016785
O           -0.44839641975477       -2.58908500331005       -0.29752697447225
N            1.05549224451604       -0.90331812849254       -0.08491286335071
C            2.12942169245288       -1.77328112587795       -0.54490469266162
C            2.68566126285962       -2.61509630160415        0.61184616807060
O            3.93595970199798       -3.19353786715334        0.28105326111478
C            3.91542019306534       -4.24843601524619       -0.55686872113797
O            2.90354596983389       -4.69289431308266       -1.03638373695206
C            5.26235225148006       -4.79865047054214       -0.81311020005854
C            6.37846624246645       -4.29089616641339       -0.31075079920668
C            1.38511461250380        0.39019820171016        0.27332923605380
O            2.50944759840268        0.81491113188645        0.21455102102802
H            1.23889694422470        6.55944043844315        1.94826282184607
H            1.44653523546863        8.34510600909730        1.56597744445262
H            1.06338463010764        7.86620121732268       -0.82353668462458
H           -0.47254097884076        3.42373992078125       -0.57474646641582
H            1.26763769930477        3.19299551770245       -0.87759243669739
H           -0.12610705443872        2.84434139406938        1.83470095344794
H            1.61623753085163        2.57692884111613        1.50862797832036
H           -3.09575819113038       -0.53088017480512        1.26081885344633
H           -2.51206856727239       -2.14770377097717        0.75148127462980
H           -3.33757775381776        0.13413855241574       -1.12785147890135
H           -2.71555012260185       -1.45392053131309       -1.64232278078583
H           -7.30892235511541       -1.92857786225860       -2.50199034684278
H           -6.41435563989543       -2.65687953765092        0.34264385604779
H           -8.04826470676702       -3.01936400480782       -0.41682833974489
H            1.73243826117322       -2.43232625985598       -1.31928144214952
H            2.92184016266499       -1.13801796688062       -0.94584197121223
H            2.88510410500480       -1.97908109625247        1.47761865980453
H            1.96809465977607       -3.40209515256761        0.86884523104258
H            5.26142939755242       -5.66438028709666       -1.45965515662457
H            7.34134763189597       -4.72343048740157       -0.52461426025371
H            6.36042284171472       -3.42544430209654        0.32964531166519
*
