! B3LYP def2-SVP TightSCF CPCM(Water)

* xyz 0 1
C           -7.38423904727011        1.69544867532628       -1.17238278587266
C           -7.22266122331510        1.50698024308727        0.12911255722598
C           -5.92998886585028        1.17007280017589        0.75902661279399
O           -5.77729794332349        0.99779724701420        1.94257822678458
O           -4.92434205922594        1.07188596062444       -0.12919593655527
C           -3.65437751116523        0.75350505465495        0.41656834357356
C           -2.67156014995852        0.60708546962924       -0.74314499744426
N           -1.34034988230109        0.28624496967368       -0.24916607141725
C           -0.49830553708364        1.34430438826442        0.04640807264352
O           -0.81500131529304        2.48977281194853       -0.13142300368215
N            0.73631350843135        0.98392221749333        0.55229228187842
C            1.65919031678264        2.06159471613075        0.88217532111939
C            2.30197026556094        2.65515344682649       -0.37959442187119
O            3.50117913809465        3.34548941514480       -0.07319272069894
C            3.37642153336630        4.52631781263988        0.56249428734304
O            2.31351087378663        4.99679019487116        0.88159382478939
C            4.67799584900894        5.17472307738064        0.82220858866864
C            5.85017854879400        4.62461763366571        0.54068415075488
C            1.16700565243374       -0.31584807752924        0.73896989502162
O            2.26411581157962       -0.58659970283365        1.15247700762501
N            0.23429427705019       -1.28921971726289        0.43020368918415
C            0.63564589725448       -2.67734995611929        0.60674243532253
C            1.35312016642885       -3.19485105295537       -0.63792408864223
O            1.71362368438293       -4.54625267588619       -0.40067934136091
C            2.32707462408439       -5.17018757344674       -1.42239978346843
O            2.55774852668421       -4.62936043022034       -2.47533002137817
C            2.68010885694522       -6.57054285910998       -1.11414577259802
C            2.44154504357537       -7.15504763735624        0.05078320905502
C           -1.03205469741578       -1.04798638685645       -0.06919827580044
O           -1.80420062991586       -1.93258691236077       -0.33165726772332
H           -6.55640851267693        1.60947270160010       -1.85549690277115
H           -8.34506419121534        1.94041526140016       -1.59286039187473
H           -8.03939341776549        1.58878054988698        0.83179630461421
H           -3.33569800124456        1.55456357246105        1.09442739462013
H           -3.72407765222185       -0.18063947080501        0.98681725884865
H           -2.61166099396768        1.54666954714956       -1.29452387565432
H           -2.99565343547275       -0.20149526768049       -1.40021700354096
H            2.43811412593957        1.63765805326843        1.51926449698280
H            1.11124384526426        2.84166937975460        1.41419642993605
H            2.60007746301717        1.85700330737691       -1.06341354512706
H            1.59471908419285        3.33330348166908       -0.86846542338553
H            4.59242676837743        6.14912570335869        1.28186443277733
H            5.91638787244950        3.64981693032717        0.08704233558014
H            6.77681418227802        5.13124315958441        0.75294320665946
H            1.30665890485644       -2.73307776129632        1.46531141806448
H           -0.26356562203682       -3.26826861895642        0.78664250637998
H            0.69814828681803       -3.13906078363548       -1.51584893832991
H            2.25600123984752       -2.60505986370168       -0.83667016094705
H            3.16159233388388       -7.08639833133259       -1.93241013910588
H            1.96348319237249       -6.62253632107989        0.85531408033695
H            2.71919081518595       -8.17905938198212        0.23587850066413
*
