! B3LYP def2-SVP TightSCF CPCM(Water)

* xyz 0 1
C           -5.11497651486706        0.43646215839556       -0.45097740174428
C           -4.31563854629443       -0.85360247853212       -0.28562005081807
C           -5.24826535261679       -2.05913204014141       -0.39753037587644
C           -3.57995675326122       -0.90199362824342        1.05860823921355
C           -2.54015099444454        0.19748210783000        1.28105187345384
C           -1.38194841459611        0.15002711414841        0.28693312638864
C           -0.28637786229559        1.15161321378493        0.64505509424167
C            0.87075879093840        1.11270760911793       -0.34941108877122
C            1.97604343972551        2.09742075769045        0.02394858935862
C            3.15393304350376        2.03057971203598       -0.94556895527340
O            3.76466779801065        0.74345571698291       -0.94680472122380
C            4.63666294793953        0.48586320227008        0.03682663701547
O            4.94276764676951        1.28695864488804        0.88694512863826
C            5.18456659026816       -0.89548774829822       -0.05623004267522
C            4.70196859154950       -1.75640857650077       -1.17864231410735
C            6.06570158175131       -1.28481037721768        0.85964585338860
H           -5.80727076300717        0.56163161772820        0.37920556639639
H           -4.46048439651583        1.30298766971027       -0.48907761437173
H           -5.68960415269539        0.40803761286487       -1.37438605759925
H           -3.58076397726192       -0.91721062393643       -1.09445642199920
H           -6.00268996685348       -2.02871978577492        0.38608432585429
H           -5.75474386032153       -2.06406037998003       -1.36016261675625
H           -4.69066124178064       -2.98808951614764       -0.29990005623605
H           -3.08107234602303       -1.87100130369003        1.14400118269512
H           -4.32172976785904       -0.84418361431169        1.85963066368780
H           -2.13705872284487        0.08099364640995        2.29062436457145
H           -3.01733194439753        1.17763655474893        1.23622410805814
H           -0.95892775157550       -0.85741990127551        0.27513836713774
H           -1.74663393840268        0.36935619001147       -0.71804026408544
H            0.09164900660517        0.93181874669872        1.64621044184902
H           -0.70988200668207        2.15866858166886        0.66714231607952
H            0.49924680361766        1.34937455117426       -1.34957230700709
H            1.28650691102342        0.10319391529117       -0.38159762639324
H            2.34143504966255        1.88068006430928        1.02958397373867
H            1.58670981115888        3.11699824582187        0.01864123764761
H            2.82310664540672        2.18947228221838       -1.97441491300201
H            3.90498949733421        2.77968614484722       -0.67255076671263
H            5.17577677586384       -2.73362936962212       -1.14007589121237
H            3.62198886008884       -1.87935274374708       -1.12091453927627
H            4.92580240447331       -1.28639157774469       -2.13437741991911
H            6.37077979109165       -0.61224462915028        1.64337891716055
H            6.50110728781489       -2.26936876633710        0.85244943848759
*
