! B3LYP def2-SVP TightSCF CPCM(Water)

* xyz 0 1
C            5.42185872225379        0.55959174385682        0.14886903401648
C            4.60239913501707       -0.72828794370413        0.11543647875982
C            5.42289329676192       -1.87860819431962        0.69715126607360
C            3.28567638303027       -0.58478273647342        0.88694694241294
C            2.28434646469972        0.36271355215783        0.22873474645126
C            0.95049061475391        0.36751905044603        0.97398108275586
C           -0.05569636070950        1.37848719312311        0.42084288224689
C           -0.60604081304310        0.98317822093281       -0.94824802129886
C           -1.57951804353983        2.01233687533504       -1.52619393565056
C           -2.91289221879329        2.05921773443377       -0.79130339768038
O           -3.57600118313972        0.80642998253170       -0.95449751668119
C           -4.47094022293963        0.46946972519469       -0.02031780155571
O           -4.74582811070608        1.17173195670477        0.92341333919369
C           -5.08530250241230       -0.86567439553813       -0.26601334987404
C           -6.24368686916572       -1.18471613081957        0.62383513781766
C           -4.60885414694011       -1.68918748261739       -1.19288315495541
H            6.36275137464840        0.42221807072098       -0.37972944125998
H            5.64480508739956        0.83878143742669        1.17667110602121
H            4.88644883280652        1.37865632020869       -0.32352358381127
H            4.36745994461086       -0.96477694944073       -0.92893202402824
H            6.35869917308897       -1.99442395492527        0.15490084548125
H            4.87323074489174       -2.81521113039343        0.63460980561848
H            5.65450261516431       -1.68634532760756        1.74277473657941
H            3.50156547678682       -0.23750358032756        1.90024446483367
H            2.82260079159446       -1.57145051599859        0.97031043305943
H            2.13131497295613        0.05066965450794       -0.80599853764794
H            2.68467593388453        1.37788234775028        0.21739953400220
H            0.51109522160682       -0.63222388017438        0.93987317375540
H            1.14206469112424        0.60587283239257        2.02316866089375
H            0.42132666279778        2.35920038423932        0.34973357626462
H           -0.88109613270773        1.46242689179524        1.13030796354344
H            0.22197974881912        0.86957518311703       -1.64943505657613
H           -1.11396821604973        0.01984193237169       -0.87131931508044
H           -1.13389008424328        3.00781675006985       -1.48735900550854
H           -1.77849291303918        1.76756831528726       -2.57127552470710
H           -3.55320187615310        2.84592972069277       -1.20764419637973
H           -2.78443977841726        2.25681738611160        0.27742414097341
H           -5.95596322907327       -1.04600678230769        1.66401835058508
H           -6.58484283060885       -2.20405079660528        0.47021778945142
H           -7.06382038301844       -0.49680353586334        0.42347448340137
H           -3.76949306879588       -1.42112611171300       -1.80968924318517
H           -5.04821590519911       -2.65871081258154       -1.35997686831336
*
