! B3LYP def2-SVP TightSCF CPCM(Water)

* xyz 0 1
C           -5.67463132998969        1.53027937730307       -0.74176374689623
C           -5.56916201063479        0.25759531070551        0.09537431934542
C           -6.81132536858116       -0.60594914258409       -0.11861557873028
C           -4.31060305370485       -0.54803822577118       -0.24593735699759
C           -3.00876328959723        0.16467237006718        0.11241503072018
C           -1.78733940441591       -0.71992483577572       -0.12900900415670
C           -0.48845180729293        0.02103047477406        0.17785244833037
C            0.74769841514939       -0.84399979377813       -0.05659929950162
C            2.02975860758238       -0.05929345566047        0.20585736862227
C            3.27421579169204       -0.89602287715652       -0.04949603241223
O            4.41462357589880       -0.07083118931861        0.17312179038612
C            5.61075172242762       -0.63024404139739       -0.04372947242424
O            5.75145860848174       -1.77459704544555       -0.40233339243811
C            6.72403408336130        0.32547172411104        0.20832220417768
C            6.35731986645248        1.71142342216239        0.63096198142718
C            7.97147848355784       -0.10147526753377        0.04224758904397
H           -4.84594329476162        2.20360764310769       -0.54008391385711
H           -5.67343785255482        1.28639835258727       -1.80225006559464
H           -6.59904411495949        2.05614160483432       -0.51266285829876
H           -5.52161604906553        0.54018269329930        1.15347077680023
H           -6.88660264126731       -0.90696507457590       -1.16153649602183
H           -7.71126536341347       -0.05453464137950        0.14424662791619
H           -6.76846167031466       -1.50322654048371        0.49472632129890
H           -4.31339819118719       -0.78008271044790       -1.31366157713390
H           -4.34788185738546       -1.49646520043106        0.29618829339189
H           -2.90652895459028        1.07173494075674       -0.48536181993747
H           -3.03665112028968        0.46050042423799        1.16399265410477
H           -1.85356477782285       -1.61309534805242        0.49637119456280
H           -1.77883470237131       -1.04701209525020       -1.17133042630759
H           -0.42704918425497        0.91037958241220       -0.45375032684334
H           -0.50185583201587        0.35625997124948        1.21743821799548
H            0.74808588108189       -1.20473274222669       -1.08752132674564
H            0.71276977733935       -1.71693022714769        0.59865415582309
H            2.06337009596561        0.81898307711162       -0.44169091336807
H            2.04660662125653        0.29006936927178        1.23982724124905
H            3.32073028686258       -1.76146465305111        0.62166418484364
H            3.29929590466272       -1.26931998275281       -1.07999942767763
H            5.74809602193910        2.18721175465815       -0.13550896508484
H            7.25000342581306        2.30763500321869        0.79974367980866
H            5.76646573166205        1.68123659802391        1.54448264793921
H            8.82146102147706        0.53843477364961        0.20676493859838
H            8.16419094780822       -1.11504437732459       -0.26564866595706
*
