! B3LYP def2-SVP TightSCF CPCM(Water)

* xyz 0 1
C           -6.08986898626225        0.01666920480344       -0.73400540621383
C           -5.72665059749037        0.22286453225174        0.73498567272760
C           -5.77944389567406        1.70681870733015        1.09244871020947
C           -4.37252239241513       -0.40862213480799        1.08932809221654
C           -3.16717281365499        0.17533690285618        0.35506718607513
C           -1.87155336901071       -0.51328711808298        0.77888175206969
C           -0.65518909231200        0.06077251274635        0.05630346735770
C            0.63941107155478       -0.62802193319410        0.48164749555064
C            1.85445179976049       -0.04578278259991       -0.23488831638265
C            3.13749996463020       -0.74438479571019        0.18881702887291
O            4.23199319394772       -0.13619203298194       -0.49410376872300
C            5.44638600436593       -0.62252035162146       -0.21047482273146
O            5.62872915985799       -1.52906763968130        0.56651000827857
C            6.53710564034027        0.07345561250422       -0.94794882541746
C            7.89096642505466       -0.53518549071650       -0.76808677209142
C            6.29702911882836        1.15268759895645       -1.68437117078802
H           -5.42119607632772        0.57798599705297       -1.38160251873061
H           -7.10539813108312        0.35884122021899       -0.92104235306627
H           -6.02900963726162       -1.03614066588066       -1.00052334681388
H           -6.48048991258271       -0.29436754919429        1.34168315682811
H           -6.79015006858483        2.08808052366883        0.96379006436765
H           -5.11826267049015        2.28414477926965        0.45120052583830
H           -5.48392544311273        1.86318480924577        2.12748803958824
H           -4.42525159757466       -1.47969499888284        0.87680952996632
H           -4.21203822686057       -0.29860229010027        2.16511747442974
H           -3.29491118507247        0.05463667024948       -0.72164477761781
H           -3.08515619558872        1.24211179624345        0.56812495394216
H           -1.94405271777710       -1.58295921740408        0.56841876452162
H           -1.73687360543142       -0.39882192565149        1.85707652995869
H           -0.58111980946736        1.13000791383371        0.26748398734468
H           -0.78776527533777       -0.05405948238409       -1.02189802856840
H            0.76948604743444       -0.51841689861076        1.56056084151418
H            0.56896282353840       -1.69622662433384        0.26516067736298
H            1.94382132095117        1.01870643798781       -0.01073826104254
H            1.73618372044627       -0.15019463012881       -1.31489875883740
H            3.11002880254568       -1.81162748912972       -0.06044020826427
H            3.29901650524515       -0.65693470538543        1.26966861682574
H            8.65728993438561        0.07315835573077       -1.23947521593208
H            8.10743581092309       -0.64223164011592        0.29308307351238
H            7.90720765741991       -1.53434131514983       -1.20124110519229
H            5.30584723622834        1.55835143977214       -1.78328227117790
H            7.08915146191389        1.65986969702714       -2.20976372176794
*
