! B3LYP def2-SVP TightSCF CPCM(Water)

* xyz 0 1
C           -2.60257838947369       -1.34965374299861       -0.27309319067413
N           -2.25109065766236       -0.08279501839820        0.33600547911970
C           -3.32623405573301        0.87735222303268        0.18930064905477
C           -1.00090507604558        0.44502418299487       -0.17799450561152
C            0.19365096937984       -0.37478730906250        0.30293946579956
O            1.36334245906356        0.42625658371959        0.15799862315288
C            2.53793572908841       -0.19240766984019        0.34338518933423
O            2.64296682989983       -1.36195937810536        0.61731998588634
C            3.66108241657588        0.75337477038492        0.16458203301996
C            4.91751489056704        0.36602624789885        0.32692753983869
H           -3.53458076120517       -1.70327268274487        0.16419319793906
H           -2.73421374368206       -1.27177310560431       -1.36385774265868
H           -1.82713477598232       -2.08298273140952       -0.06523264631840
H           -4.22991490830766        0.46491597765451        0.63481631355414
H           -3.06636575320842        1.79222759624095        0.71917505225310
H           -3.53666215335964        1.12657762093910       -0.86254820141907
H           -0.87395454899103        1.45813803575657        0.21159022731823
H           -0.99178623704296        0.50170735282422       -1.28136298621888
H            0.06127365071805       -0.63697862742010        1.35828440207325
H            0.32923244302220       -1.29841075255881       -0.26845109863943
H            3.38126234134360        1.76143103261310       -0.09972335417206
H            5.13792916570539       -0.65589989356815        0.59140513845989
H            5.74923316533021        1.03788628765211        0.20085242890834
*
