! B3LYP def2-SVP TightSCF CPCM(Water)

* xyz 0 1
C          -10.88452561675556       -1.96660010907564       -1.54810499087029
C           -9.54079213177811       -2.50188177307273       -1.92709442769179
C           -9.35413526963768       -3.56857895295791       -2.69661553778040
C           -8.39478898890275       -1.74190602602323       -1.35510619802825
O           -8.51948857759728       -0.80645298815620       -0.60336546474024
O           -7.20581783159630       -2.20438792409744       -1.77114938777376
C           -6.04753703160056       -1.54352113559389       -1.27191356400826
C           -5.69964230721227       -2.00705174284777        0.14198823193703
C           -4.34736587336058       -1.45891201689520        0.58388494309413
O           -4.42348857992957       -0.05168958886662        0.57798788606449
C           -3.34239493554006        0.66838052588023        0.99377483689751
C           -2.13488636843959        0.13055891858975        1.42256608174590
C           -1.11075559281807        0.97069990362940        1.82161736284092
C           -1.24522885229469        2.35314065151284        1.80054494586304
C           -2.45893027912526        2.87887465509799        1.37396602585996
C           -3.49054426866420        2.05363146358772        0.97577191757380
C           -0.08831065766128        3.20933594356093        2.29109234184504
C           -0.10352748524966        3.14391759652821        3.82506280728361
C           -0.21105021531887        4.68034597733717        1.86757332908489
C            1.20251790693736        2.67915710443074        1.68823497675257
C            1.24313900454181        2.41674259450058        0.32456128076070
C            2.38814981965724        1.95146777236540       -0.29662657219507
C            3.54034414452810        1.73713940160986        0.44975923577438
O            4.72526027130675        1.27251491977154       -0.04461838686826
C            4.79793563047709        0.90717230374930       -1.40446325793962
C            6.18233541147216        0.31975392123931       -1.65691174315394
C            6.37375349329843       -0.97266465870995       -0.87395284336395
O            7.68945115084205       -1.46289628071642       -1.11015772006395
C            7.88061426523994       -2.78234106439503       -0.98223910328856
O            7.00449696872477       -3.55702583835060       -0.68226601307054
C            9.29143126746277       -3.16721963531720       -1.25945538151464
C           10.23403882661968       -2.08370820258828       -1.67242739878177
C            9.63231454870134       -4.44446115797262       -1.12228342038338
C            3.51517823677460        2.01081724013296        1.81509504608539
C            2.36546551676620        2.47549291165987        2.42077489701564
H          -10.97430569567831       -0.93122527572586       -1.87196411820570
H          -11.67908943416774       -2.55683855974307       -1.99483636518893
H          -10.99126917069166       -1.97343695535850       -0.46469284977669
H          -10.18638019346881       -4.11847459440004       -3.10369578069979
H           -8.36812712363715       -3.92206214528044       -2.94021564406252
H           -6.21262845444172       -0.46210332757806       -1.26963020087928
H           -5.24937906479836       -1.79895303667375       -1.97267544761898
H           -6.47176911685862       -1.65356963420775        0.82635210420495
H           -5.67075362400921       -3.09777819592351        0.17124568554432
H           -4.11574571786604       -1.82582632503977        1.59343757059265
H           -3.55888470135054       -1.79923377851259       -0.10375332499839
H           -1.97714558995752       -0.93630171396837        1.45144137998857
H           -0.17803223571844        0.53389100062704        2.14857965359115
H           -2.61568570260097        3.94521715756060        1.34600830401805
H           -4.43216269771425        2.46281933178331        0.64500302471586
H            0.62712480617961        3.82670030795725        4.25219726080094
H            0.10280888396937        2.13460863532322        4.17219192145329
H           -1.08908502263093        3.43191569626466        4.18596740642423
H            0.70144532628950        5.20865225745961        2.13759722665219
H           -0.34702863606051        4.76503922620251        0.79241278305017
H           -1.04414919900831        5.16350911622305        2.37222940861177
H            0.35357627483063        2.56703696799179       -0.26999355213998
H            2.36717020254887        1.76130419316752       -1.35832644593014
H            4.64587840058624        1.78784415414830       -2.04408480458237
H            4.02567058604739        0.16176148833462       -1.64069433993878
H            6.93945863067456        1.03855876390633       -1.34335725927716
H            6.30439646135964        0.12688806494644       -2.72314722181394
H            6.25052826656744       -0.78505841094009        0.19743009632994
H            5.64867403629199       -1.73560338477078       -1.17871053940322
H           10.28463432146384       -1.31723795608243       -0.90153751740300
H            9.88007107309781       -1.60651282233667       -2.58445910255375
H           11.22817700291208       -2.48814601979219       -1.84231481078207
H           10.63466603555692       -4.79223533589122       -1.30426534965158
H            8.90050811793329       -5.17351831203353       -0.81853590947758
H            4.41505284897452        1.84819216104808        2.38729079630086
H            2.38856650552570        2.67233255173232        3.48041722714144
*
