! B3LYP def2-SVP TightSCF CPCM(Water)

* xyz 0 1
C           -2.97142828747416       -0.53416639389132       -0.66646254324247
C           -2.43614174245660        0.45267636582313        0.36548419062626
C           -0.92404087291045        0.70417838642151        0.29330233942011
C           -0.50316382198921        1.37743299014448       -1.01099340781049
C           -0.13613230933696       -0.58703424923559        0.50288130017579
O            1.22368861872700       -0.24842712970237        0.77143812683492
C            2.05374003568682       -1.27529448576803        0.97731349600603
O            1.70127249034261       -2.43051579506345        0.95552688639632
C            3.44891364684040       -0.85050904576289        1.23143073711140
C            3.86409539259343        0.40551722511141        1.17072845208247
H           -2.77037200139237       -0.19216988690807       -1.67763499063877
H           -2.52670655838879       -1.51667891342904       -0.53521773591915
H           -4.04863634941089       -0.63310759987227       -0.55373391521602
H           -2.94532657004745        1.41038820137781        0.23698919443735
H           -2.68005134316800        0.08319998218494        1.36432930203290
H           -0.66154674350420        1.37390952170674        1.12033954532590
H           -1.04576341941599        2.30959974388759       -1.14918996054602
H           -0.69732373268061        0.73106647577375       -1.86293661096474
H            0.56135692063069        1.59587487361749       -0.98587843710298
H           -0.53114687113472       -1.15946194430109        1.35042078191054
H           -0.16764191235656       -1.22722104726449       -0.38508592036054
H            4.11623469139511       -1.66881280853616        1.46111576798948
H            3.18471477606228        1.20719058857311        0.93509746115877
H            4.89140396338889        0.67236594511301        1.35390494029409
*
