! B3LYP def2-SVP TightSCF CPCM(Water)

* xyz 0 1
C           -1.86845627203948        2.15993304860631        1.84413429666543
C           -1.78147733525261        0.67901837675915        1.49057586887470
C           -0.95118511874736        0.35738683289985        0.24129836970090
C           -1.56567037861061        0.92363033677599       -1.03634308395414
C            0.49593980193042        0.83838454960610        0.39600823907802
O            1.32508252068426        0.33741230966343       -0.64943400640555
C            1.81280889968413       -0.90083541913472       -0.50264631206592
O            1.61886381566045       -1.59624971674848        0.46415167223196
C            2.62318202819501       -1.28249652480397       -1.68107145196127
C            3.18335278806447       -2.47943928556057       -1.76983561500945
H           -0.89027885317109        2.56068194637799        2.09791754368675
H           -2.27938461937913        2.73766725612552        1.02063825853434
H           -2.52053702265536        2.29194797938926        2.70435126154593
H           -2.79117561324875        0.29386044683032        1.33128171437239
H           -1.35426199582980        0.13793166467490        2.33776951408234
H           -0.91582916849841       -0.73456897748551        0.15043124581125
H           -0.97896315657473        0.61726290488950       -1.89921206842120
H           -1.58617771632720        2.01009068951172       -1.01036906870883
H           -2.58195519957311        0.55790830728233       -1.16190086160579
H            0.56205597432259        1.92434027093278        0.31247834095407
H            0.89879221810605        0.50634238557985        1.35897385203038
H            2.71466554151552       -0.52749921758975       -2.44703906102542
H            3.05708253923633       -3.19516404004114       -0.97351066962175
H            3.77352732250988       -2.77946012454180       -2.61864497878653
*
