! B3LYP def2-SVP TightSCF CPCM(Water)

* xyz 0 1
C           -2.95487460028374        1.23902869506660       -0.42003167151034
C           -2.57449523688459       -0.15732897079485        0.05966240729611
C           -1.18202785181384       -0.60930156374407       -0.39329190773895
C           -0.98680415972061       -2.09981156021319       -0.12071910823021
C           -0.08803997156602        0.19028904612051        0.31044899665812
O            1.17381085836354       -0.15270643980049       -0.26032842871532
C            2.21209877558062        0.61783802586516        0.08171725310668
O            2.13183688774874        1.55820983267554        0.83365449715408
C            3.44871374409270        0.16006816482947       -0.59040338354205
C            4.60542985133363        0.77482299083718       -0.39463383670776
H           -2.32551463419847        1.99986951872595        0.03308117810858
H           -2.85741752614666        1.31044662666066       -1.50157253711618
H           -3.98722264896619        1.45559024353600       -0.15570940847364
H           -3.30348904750225       -0.87061986752517       -0.33074279171561
H           -2.62640508637973       -0.19580904882230        1.14993350382106
H           -1.08286062786062       -0.43362613840895       -1.46965047076261
H            0.01459120702937       -2.40536372241861       -0.41161114505172
H           -1.70722836843066       -2.68837809555023       -0.68348811824864
H           -1.12022404341158       -2.31098692210785        0.93836022406901
H           -0.23579338447209        1.26886017405264        0.19679926026935
H           -0.06604173901751       -0.03875579122445        1.38246664435030
H            3.33576398195916       -0.69567420253520       -1.23863565186268
H            5.51588492922820        0.45749774265983       -0.87340465488926
H            4.66030769131840        1.62584326211591        0.26477614973154
*
