! B3LYP def2-SVP TightSCF CPCM(Water)

* xyz 0 1
C           -3.02041876325740        1.42213795235008        0.16142693321836
C           -1.55807934938449        1.10418748528778        0.44858588806739
C           -1.32321068964635       -0.35318533502825        0.86191119924846
C           -1.63689997755061       -1.33221864980200       -0.26668764597753
C            0.12216442487429       -0.53644276473711        1.32472220051054
O            1.00655178512055       -0.22488581965380        0.25067815493467
C            2.31343105449002       -0.34790771491049        0.50462341043255
O            2.75913592984314       -0.70059315666930        1.56917307384113
C            3.11659086961537        0.00642163875700       -0.68678946069739
C            4.43999464647415       -0.04084942429958       -0.66213575670850
H           -3.37283629459291        0.89379851532642       -0.72034294979219
H           -3.64563896865390        1.14055511879440        1.00628920374530
H           -3.14262696345605        2.48842837127151       -0.01394494696955
H           -1.20975183376680        1.75234724313115        1.25647325657175
H           -0.95451201482537        1.32139751260944       -0.43395743759486
H           -1.96277681141271       -0.58323732665985        1.72160136749369
H           -1.41947061289067       -2.35093870800266        0.04656433935286
H           -2.68568400564675       -1.27923921527092       -0.54339161730465
H           -1.03057450619888       -1.10207664912822       -1.13900738935671
H            0.35289739045966        0.12057540900500        2.17171089180868
H            0.30547701592711       -1.56932815037996        1.64312293432338
H            2.55069997469611        0.30027090980572       -1.55771680164831
H            5.04335830733941        0.21262310792809       -1.51677428180956
H            4.95217939244289       -0.34184034972441        0.23747143431027
*
