! B3LYP def2-SVP TightSCF CPCM(Water)

* xyz 0 1
O            1.07095556428026       -1.47554146982643        0.42535641118709
C            0.89071234116731       -0.30222009406340        0.20981227609244
O           -0.32197393358212        0.25652215767465        0.11354072991832
C           -1.43905903408871       -0.61589318750883        0.28049206265604
C           -2.71033473271636        0.18812474741809        0.08459779090090
C            1.95136063502154        0.71122080837145        0.01944382970739
C            3.23343347181632        0.38379959807712        0.08000246298623
H           -1.36329873434476       -1.43028545669429       -0.44919245796131
H           -1.39553628758426       -1.05644953792051        1.28349056245013
H           -2.73232759053006        0.61614253496263       -0.91405857813165
H           -3.57431676887044       -0.45709156616461        0.21458753908489
H           -2.75674937524335        0.99664973144471        0.80944177493983
H            1.60535163027735        1.71627188779205       -0.16740443685593
H            3.52159600164440       -0.63720627185279        0.27198905447624
H            4.02018881275291        1.10595511829009       -0.05448202145064
*
