! B3LYP def2-SVP TightSCF CPCM(Water)

* xyz 0 1
O            0.32123575734537       -2.01428439058267       -1.07080664619634
C            0.73298657858597       -0.97356010179633       -0.61732847525454
O           -0.06543848482936       -0.02197181141859       -0.12090296839924
C           -1.46633605091921       -0.29588795171163       -0.15764500556202
C           -2.20334285639108        0.89592562692613        0.42303489719993
C            2.16803689563271       -0.61869217873531       -0.55416863620307
C            2.62810563016923        0.52380700095884       -0.06657808837637
H           -1.66362618787509       -1.20745795182513        0.41816344802584
H           -1.76191832751605       -0.48257925635504       -1.19629600487013
H           -1.97927218324090        1.79088042329502       -0.15109712185421
H           -3.27352946200126        0.71299718810438        0.39266493917270
H           -1.89929968078722        1.05861297577020        1.45374578522119
H            2.82059070051384       -1.38422639735927       -0.94819938419573
H            3.68203827073045        0.74443716892913       -0.03741688693655
H            1.95976840058260        1.27199765580024        0.32470014822855
*
