! B3LYP def2-SVP TightSCF CPCM(Water)

* xyz 0 1
C            1.05602439073661       -1.79906083987389       -1.28736386391474
C            0.73809137714066       -0.67366014436303       -0.31059643090612
C           -0.59265146762619       -0.94542303663901        0.41049108079139
O           -1.64127190983935       -0.84421613238825       -0.52178517913141
C           -2.89354808475129       -1.18884127507621        0.01702734907314
C           -3.95734968695141       -1.02227223834231       -1.06623895970794
C           -5.24140194194700       -1.77736839804665       -0.73913596418708
O           -4.23735754668032        0.37538278529545       -1.17565244470354
C           -4.52601427735164        0.85071904155838       -2.39266765163832
O           -4.57405112588161        0.17165687237618       -3.38934166134628
C           -4.79227295678152        2.30709986297664       -2.38717640444510
C           -4.82818464877141        3.05121629210307       -1.29215574576500
O            1.79563594761988       -0.58864723582672        0.62621346757879
C            2.02529445662126        0.69709408411102        1.14999401062987
C            3.11276137897403        0.61366472494030        2.22893852470755
C            2.74309108978579       -0.36711168492185        3.33056748065131
O            4.34607467707272        0.17378618651146        1.66089761262690
C            5.07287098150732        1.07589796746699        0.99402415749858
O            4.75753043367838        2.23364861277162        0.85654959671553
C            6.31503518702836        0.46188738194394        0.47430359114921
C            7.20536274676026        1.17658229731240       -0.19740997058371
H            1.95148030985293       -1.55902812903643       -1.85343099585600
H            0.21935250133176       -1.92915011785146       -1.96669215716164
H            1.22804198602583       -2.72054253061486       -0.73759371729136
H            0.63942364279149        0.27290127578984       -0.86108050216952
H           -0.56596795436224       -1.95189635103347        0.85511526931691
H           -0.73704458582406       -0.21912126032340        1.22608717900076
H           -3.13978255809385       -0.54000840047479        0.87113386351244
H           -2.88250147668782       -2.23322348909392        0.36471583450267
H           -3.54816475793075       -1.36568504691158       -2.02437548249578
H           -5.04405789981944       -2.84353991456394       -0.68138285680720
H           -5.64685318131807       -1.43433755471702        0.20999563292806
H           -5.97511772300030       -1.59913590589725       -1.52138495000228
H           -4.97179326803253        2.71834714409097       -3.37021649198157
H           -5.03370133007558        4.10786491894329       -1.33175370533105
H           -4.65051732773889        2.62232463548932       -0.32060826943437
H            1.11630925514931        1.11207601440384        1.60840860532154
H            2.35342823647219        1.38235483958755        0.35457651731874
H            3.26292735825704        1.62672950010630        2.62852358492539
H            2.56141696241370       -1.34174660701389        2.88808522325633
H            3.55540431624891       -0.44440071584788        4.04783749839273
H            1.84576088354505       -0.02823609988883        3.83988955014405
H            6.43222613193414       -0.59062542236478        0.68163970197009
H            8.11439642022541        0.75042220146715       -0.58572566634821
H            7.03166503830363        2.22561989189889       -0.37569326080289
*
