! B3LYP def2-SVP TightSCF CPCM(Water)

* xyz 0 1
C            3.09391938015891        0.33066408224145        0.07449847513786
C            1.87767943935538       -0.06898065751970       -0.73921529323212
O            0.71843234016051        0.07922962998956        0.08035930890594
C           -0.45179294427728       -0.21985569928513       -0.49664607946882
O           -0.54429971486770       -0.58924839576671       -1.64282754065482
C           -1.61356873249289       -0.05197117936096        0.41919251090129
C           -2.94476337587219       -0.25917268681116       -0.22991385411053
C           -1.44760837036445        0.24419612661116        1.70350662168197
H            3.17127975590844       -0.29217587151779        0.96167399136695
H            3.99060162341318        0.20758086553603       -0.52553927212559
H            3.01266146613000        1.36880145936520        0.38476931235557
H            1.76549656631174        0.56218082176555       -1.62836068318631
H            1.94411207300590       -1.11127750655184       -1.07207666898229
H           -2.96387760973423       -1.22690414323920       -0.72713456271248
H           -3.74678920732846       -0.20683108249488        0.50045629269986
H           -3.10365816155204        0.49829667736772       -0.99577414521838
H           -0.46867578645398        0.37951466310146        2.12827875153471
H           -2.28914974150103        0.35595189656920        2.36695283510723
*
