! B3LYP def2-SVP TightSCF CPCM(Water)

* xyz 0 1
C            2.98179849658653       -0.88035712177701        0.18481374783250
C            2.00050998367653        0.27100918522073        0.29609737972859
O            0.67993014312727       -0.24308488582197        0.12454151153889
C           -0.30772222366607        0.66021128813808        0.12378125462777
O           -0.11663232106330        1.84443879401231        0.26578478518581
C           -1.65291540873111        0.05183218007586       -0.07083671319985
C           -2.79180737620252        1.00745865756254        0.08832950857625
C           -1.79481859672594       -1.23368491213418       -0.37410844649971
H            3.99409416855067       -0.51125239134891        0.32034318226300
H            2.77027550211250       -1.62679810354490        0.94541806891052
H            2.90130100841027       -1.34835731022529       -0.79267892655189
H            2.06565440538873        0.75717469426431        1.27643511205922
H            2.18653378379114        1.03190469773522       -0.47059361935794
H           -3.73241681645609        0.54274559242742       -0.19138357034408
H           -2.61957154851107        1.88907905801514       -0.52545525311788
H           -2.85060111055526        1.34299211076401        1.12277974372019
H           -0.94521204016242       -1.88484027740601       -0.47937523483654
H           -2.76839904956990       -1.67047025595742       -0.52291653053489
*
