! B3LYP def2-SVP TightSCF CPCM(Water)

* xyz 0 1
C            2.94235329256871       -0.06136749196488        1.00604296273604
C            2.01271045580564        0.23033246064408       -0.15678278154922
O            0.67464030236118       -0.04586099123823        0.25644579290269
C           -0.28439881503704        0.20712884312647       -0.64235307338670
O           -0.05395152027633        0.63468661167864       -1.74824243756467
C           -1.65158649061285       -0.09077673720833       -0.13269879728829
C           -2.73138165732162        0.01073850632833       -1.16174320960345
C           -1.86298527195856       -0.40367068023757        1.14097729517764
H            3.96641507152940        0.15893111190039        0.71909975167265
H            2.86912531709350       -1.10731217073432        1.29112409323643
H            2.67311267083861        0.55145964901520        1.86211138086148
H            2.25124882749681       -0.39428576204627       -1.02548531477993
H            2.07771166187735        1.27938718614069       -0.46808338254395
H           -2.61440016360375       -0.78128162692484       -1.89952411645700
H           -2.64659399938662        0.95718012923004       -1.69071772196622
H           -3.71301771263383       -0.06871452521733       -0.70525560243475
H           -1.05507822888215       -0.46587041524655        1.84814762552081
H           -2.85392373985838       -0.61070109724564        1.50974553546636
*
