! B3LYP def2-SVP TightSCF CPCM(Water)

* xyz 0 1
O            5.78702700661103        0.88328723329267       -1.84526752247302
C            6.55700067212860        1.04051734485844       -0.68476625938593
C            5.71886955149251        1.31613766420024        0.58100509040978
N            4.67044180380158        0.33877098664219        0.75706136679673
C            5.07027346561286       -0.84095873043351        1.48741855377545
C            4.92112774362097       -0.65241693226904        3.01286091110972
O            3.67401356199669       -0.14046355507710        3.39616674157121
C            3.39601717768708        0.52676024041252        0.29716951503841
C            2.99913751396978        1.71142622810982       -0.35196614067091
C            1.71195587961526        1.90200596115803       -0.79012630588122
C            0.72186860215162        0.92503140108855       -0.63422381854641
C           -0.61413315038533        1.17995625880520       -1.09174745083471
C           -1.66965089134066        0.34341682232752       -1.04071552119841
C           -2.97539370760539        0.76397399818154       -1.52180973042291
C           -4.05668346918251       -0.34218843134359       -1.38422138323830
O           -5.19075310726827        0.08339354637108       -2.09251270113062
C           -6.32849513022122       -0.73602363463499       -1.92896353161179
O           -3.59069845266750       -1.59070554425860       -1.85691200334853
C           -3.20720735656593       -1.58156283875530       -3.21718039645001
C           -4.30181001083125       -0.44047359258189        0.11166367228036
C           -3.92363449511503       -1.55527942468854        0.84530358998510
C           -4.14199322201083       -1.58761575890020        2.21172633553258
C           -4.73426237483153       -0.51135488405647        2.84969976540973
C           -5.11237803591305        0.60222465670502        2.11735782024667
C           -4.89463109122555        0.64132705637298        0.75275026386581
O           -3.24278856597646        1.87093435731365       -1.93436774474374
C            1.11328765220654       -0.26418734113950       -0.00867481922937
C            2.39496587736945       -0.45396350808686        0.44409095368067
H            5.23724844803035        1.66360880343170       -1.97862023703498
H            7.29329436441562        1.85004699196576       -0.80109346435022
H            7.09902749900449        0.09749293529962       -0.57705563816863
H            5.29865682491257        2.32148528920852        0.54062179234897
H            6.38498287226085        1.28238408088026        1.44711251578398
H            6.11958778017838       -1.05510316908411        1.26891299096891
H            4.49310483962018       -1.70519816575215        1.15789790343009
H            5.64783020810528        0.08026634762861        3.37307580637383
H            5.12740025020401       -1.61351877306483        3.50739614839842
H            2.97153227815574       -0.71081796042189        3.06407202835608
H            3.69688352921118        2.51787976901976       -0.51206077996709
H            1.45565082399949        2.83492057350304       -1.27187328171493
H           -0.79314459144607        2.16046714778484       -1.51867601877026
H           -1.60116205616676       -0.65934640512576       -0.64990279570249
H           -7.06289831559230       -0.37002431832615       -2.64355086999643
H           -6.09424999101446       -1.78398385476178       -2.14054084823881
H           -6.73120183316494       -0.66057958314491       -0.91312853337125
H           -3.05767432476394       -2.62376036138000       -3.49355539259140
H           -2.27616648276285       -1.02233911410581       -3.36102389165044
H           -3.98666022297199       -1.13839832078081       -3.84226916037522
H           -3.47269460917369       -2.39346551513623        0.33800009149901
H           -3.84891278281298       -2.45861566305726        2.77995396418287
H           -4.90153864137358       -0.53980876908444        3.91652631399050
H           -5.57434225958833        1.44408734870267        2.61141427604616
H           -5.17968630868079        1.50425907822072        0.16922019080302
H            0.39192881079820       -1.05401496540861        0.13353839759204
H            2.61173044347827       -1.39989000664923        0.91479224161976
*
