! B3LYP def2-SVP TightSCF CPCM(Water)

* xyz 0 1
O            6.00262729387642        1.07723227978565       -2.78489539893039
C            5.49489004573469        1.19273602372715       -1.47650361343521
C            5.16281688366356       -0.22504633687833       -0.98535930916576
N            4.65104241633414       -0.24172857656935        0.36345204357200
C            5.63046113474517       -0.44693752811416        1.40297397760730
C            5.84581446265317       -1.93978402391192        1.72613195011139
O            6.88711883244278       -2.13660663994091        2.64748718346515
C            3.31336598675763       -0.13117444750813        0.63398713304071
C            2.79655214540879       -0.34711826175955        1.92329564336559
C            1.45265887679743       -0.22997585335386        2.18419776102502
C            0.53096357160140        0.10278347656508        1.18430852273145
C           -0.86581636459585        0.19093427605987        1.50665680457064
C           -1.88185211786568        0.49628181871381        0.67631197002064
C           -3.25276451633382        0.52157010939895        1.16247016497472
C           -4.28634444520564        0.85972522744805        0.05490546485082
O           -5.50868122483202        1.13806408728418        0.68474483071627
C           -6.60317816226025        1.28878326618265       -0.19445597982407
O           -3.86388766937491        1.93977400003248       -0.75326422367706
C           -3.66794814443965        3.14626426389387       -0.04402228237450
C           -4.33332059091193       -0.40169794685588       -0.79133606458325
C           -4.86662053443937       -1.55409740241951       -0.22493186965669
C           -4.90490235096058       -2.72847130060835       -0.95336225965913
C           -4.40608880818370       -2.76122535080675       -2.24565568930122
C           -3.87190133333301       -1.61451346785682       -2.80812336002279
C           -3.83260090005985       -0.43523640412542       -2.08456911484498
O           -3.59602552927823        0.24189323439562        2.29005708371557
C            1.04436569669515        0.32092440142761       -0.10012791677269
C            2.38700114188706        0.21233064313940       -0.36761266555351
H            6.22595753383635        1.95157871982782       -3.12019174369546
H            6.23834380446904        1.64788441533987       -0.80618307620661
H            4.59130397346620        1.81743735079091       -1.45617696711834
H            4.45161448035447       -0.68161783843953       -1.67594823596036
H            6.07856784807149       -0.81828290207990       -1.02809034675419
H            5.33430654319358        0.09243386767024        2.30777613765905
H            6.58461501634354       -0.02790940523128        1.07214172498203
H            6.14930312998732       -2.47064018188304        0.82093745014957
H            4.90711713249482       -2.38385494725348        2.08417506853099
H            6.65097766670149       -1.72761125913238        3.48756192186361
H            3.44675193349070       -0.62472329466809        2.73651580735047
H            1.09557724414985       -0.40911092145783        3.18828206595741
H           -1.13024351299646       -0.02077150678927        2.53673411480746
H           -1.73627159073922        0.72906424372676       -0.36655383714092
H           -7.43204331108331        1.63323715820634        0.42077864305810
H           -6.38600767093705        2.02686781361909       -0.97287665809333
H           -6.86584363309592        0.33786432224241       -0.67030280808733
H           -3.53364152359715        3.91889756368225       -0.79912133023407
H           -4.53428775870108        3.38170777609352        0.57939205291954
H           -2.77777663345362        3.09033456600661        0.59235146208725
H           -5.24603885461926       -1.51471123634489        0.78546976942974
H           -5.32078685690201       -3.62112087153874       -0.51039685930347
H           -4.43332162266811       -3.67984723665149       -2.81336754808230
H           -3.48356457098835       -1.63634425361035       -3.81644592011451
H           -3.42758604574464        0.46528296190755       -2.51860441896764
H            0.37445115594097        0.58424289026086       -0.90372289781680
H            2.72077932649295        0.40402963835785       -1.37375335717983
*
