! B3LYP def2-SVP TightSCF CPCM(Water)

* xyz 0 1
O            1.44229837301461       -1.55211818908572       -2.69857422062082
C            1.26958975972914       -1.50568581710442       -1.50317719782053
C            0.29682960658633       -2.47010370406780       -0.77797120366103
O            0.10878908251861       -3.58818629675144       -1.60050606794744
C           -0.90167328594249       -4.47635474968432       -1.16627375841703
O            0.76043102533502       -2.83830085330567        0.50387547930761
C            1.98562896525279       -3.54515251400482        0.49138698234122
C           -0.95692507738716       -1.62442896937566       -0.62919123467037
C           -1.36437173190383       -1.12404870291042        0.59775531184378
C           -2.48971288564453       -0.32463026704745        0.68862044616305
C           -3.20781183285601       -0.00691127045459       -0.45597986338762
S           -4.65555269752825        1.01177200989332       -0.44259797762101
C           -4.42524838578176        2.01865886527187        1.06534548162309
C           -5.29819558322182        3.26805163296228        0.96294966505583
O           -5.15946136901890        4.09512639602922        2.08900321665434
C           -2.80725210951905       -0.51882401493080       -1.68789684354180
C           -1.68828022168075       -1.31856045593311       -1.77362358612241
C            1.86168863071598       -0.50487707676936       -0.61544460361753
C            2.75482684685257        0.38101672606384       -1.08375120839255
C            3.43728067500939        1.41584208071764       -0.33677646185784
C            3.20380842305084        1.64936057799600        1.02209303752163
C            3.88140640048570        2.64934142582449        1.69044962763116
C            4.80583107277883        3.43718053129023        1.02166334376984
C            5.04824353787499        3.21923730318542       -0.32516789400959
C            4.37130510131288        2.22068951916697       -0.99728188154849
H           -0.75106121291032       -4.76413796632116       -0.12145194285340
H           -0.82025813655882       -5.35188227889191       -1.80671065765013
H           -1.89584753323610       -4.03045451960672       -1.27256741650682
H            2.12094396225342       -3.92668065373143        1.50156589642895
H            1.95399895379319       -4.37486632956478       -0.21889418182233
H            2.81984411445131       -2.88513695947383        0.22873438843369
H           -0.80950231464431       -1.37950836987414        1.48636741407653
H           -2.80202143211156        0.03548076693867        1.65624125660193
H           -4.70958855201440        1.43453590840021        1.94116897274818
H           -3.36959893197391        2.29170843410401        1.12207711639305
H           -5.05465124370690        3.80980310839783        0.03861588603085
H           -6.35236400000046        2.98443193562678        0.92929411508101
H           -4.25550962218477        4.42761377029412        2.12923659046523
H           -3.37823234711538       -0.27508146648002       -2.57027123176414
H           -1.36101790604777       -1.70754382018728       -2.72616135123371
H            1.55117045275916       -0.53746656368705        0.41691634754557
H            2.99969152262977        0.31709859671495       -2.13809944268377
H            2.48666737420886        1.04483028911606        1.55523904974664
H            3.69032347381021        2.81805508370848        2.74017660611825
H            5.33420935070957        4.21747341404872        1.54881148190640
H            5.76711724181281        3.83074835165545       -0.85019945406992
H            4.56221246605857        2.05288608182790       -2.04738403166800
*
