! B3LYP def2-SVP TightSCF CPCM(Water)

* xyz 0 1
O           -1.49455562056083       -1.66980639829740       -2.04354249829968
C           -1.35794469261105       -1.44649911271178       -0.86310486519900
C           -0.26170990007864       -2.14712313817316       -0.02141547960277
O            0.11410972188639       -3.31498054072636       -0.70202943104774
C            1.24082210031624       -3.97472020109066       -0.16272953696202
O           -0.68878966070036       -2.42657754426714        1.29403463148001
C           -1.78803593360350       -3.31313075312417        1.36878959574470
C            0.85137019363969       -1.11396000392356        0.02946729524043
C            1.52559753319913       -0.81304568437541       -1.14711089942781
C            2.54400972431384        0.12105103491707       -1.15677163262947
C            2.89927116405177        0.76460888982345        0.02156302491701
S            4.18435512580428        1.97384976598928        0.13856406814411
C            5.10448713935078        1.77430139441133       -1.42549664847502
C            6.41998943748076        2.54392604059072       -1.32196201568404
O            7.17810034251967        2.44339066026307       -2.49868735112972
C            2.21252151441936        0.47569471348667        1.19852237217741
C            1.19322353155631       -0.45342323843217        1.20263805984242
C           -2.12448032959886       -0.45480183181102       -0.11011804152101
C           -3.16967135559734        0.16916606245245       -0.67661149686239
C           -4.04182141641098        1.15080387506145       -0.06894044307358
C           -3.84156510542789        1.64699914230618        1.22303374443908
C           -4.70398489728523        2.58309826008701        1.75752642266909
C           -5.78390669396822        3.04322681702701        1.01949659204664
C           -5.99590136966937        2.56196519969682       -0.26254816828530
C           -5.13376343293599        1.62766557996870       -0.80166253092000
H            1.30930921153509       -4.92308089760028       -0.69141637846468
H            1.11789455379976       -4.15430953433548        0.90959540903322
H            2.15575908352856       -3.39462897169246       -0.32245089002652
H           -1.89737033649984       -3.56335289920296        2.42224029819868
H           -2.70495514487608       -2.83810057083605        1.00283229801157
H           -1.60340614170902       -4.22010544122044        0.78767427917215
H            1.24287391992699       -1.31806154675073       -2.05890761870544
H            3.04251426727851        0.34233941319357       -2.08669046368438
H            4.50580895851119        2.16509899530796       -2.24862902119751
H            5.29431987305801        0.70874838445801       -1.56960895995830
H            6.21858639304550        3.60888810621160       -1.18749684842687
H            6.98665601219451        2.18551813584251       -0.45155857392535
H            7.42916980394629        1.52316377830357       -2.63791148479394
H            2.49325900012420        0.98596575493852        2.10705532780318
H            0.67191304398572       -0.68963913968471        2.11613309486268
H           -1.81599494794179       -0.28241577737293        0.90892850086435
H           -3.39698618441358       -0.09481432935772       -1.70360699519077
H           -3.00318767676867        1.30070825738060        1.80699484312744
H           -4.53580650295294        2.95920307605644        2.75600435608025
H           -6.45606778713117        3.77499981668238        1.44214663108876
H           -6.83520086566316        2.91806213489817       -0.84156555419584
H           -5.30081565306412        1.25413626560524       -1.80166701725440
*
