! B3LYP def2-SVP TightSCF CPCM(Water)

* xyz 0 1
Br          -5.34820819906090        1.32600703567146       -0.41328733573460
C           -3.63945016053205        0.55172678204578       -0.29897715277343
C           -2.66855097575772        0.85943936802222       -1.24886935517754
Br          -3.07485633585266        2.03952657833231       -2.65312725492970
C           -1.40319596551781        0.28495576703068       -1.15261809489125
Br          -0.12348968114277        0.69622443408952       -2.47345817439899
C           -1.07990383174057       -0.59051502831384       -0.11400391789112
C            0.31552566587374       -1.13296528708455       -0.02756912144053
O            1.19975921105275       -0.02780053405252        0.11292420119481
C            2.51661741047923       -0.31360943124675        0.01667600319417
O            2.92944272131294       -1.42994779565398       -0.15504897508413
C            3.32193108833129        0.91361136156631        0.14823301739515
C            4.64620138909941        0.86548731297554        0.13020574069000
C           -2.06428155515579       -0.88997340926523        0.82624673644993
Br          -1.72213296750887       -2.07574911149399        2.25677219580714
C           -3.33942755783681       -0.33007810814801        0.73557565860808
Br          -4.65499483262633       -0.74695118571793        2.01169570438006
H            0.57607018841339       -1.68835722678055       -0.93995205775227
H            0.44297293315315       -1.80907130153093        0.82251560995103
H            2.76289571428433        1.83046241628077        0.25446012282483
H            5.15236974138014       -0.08062552912424        0.02568635088750
H            5.25470499935160        1.74820289239741        0.22288809869053
*
