! B3LYP def2-SVP TightSCF CPCM(Water)

* xyz 0 1
Br          -5.41104505182866        1.05086644798423        0.43000463276132
C           -3.66514436892401        0.37726559208769        0.25756941294828
C           -2.74551776679359        0.54528615249592        1.28993570357558
Br          -3.25336891857350        1.44527699004941        2.85893001875919
C           -1.45387044550918        0.04295356550474        1.15046607272139
Br          -0.23337833011233        0.28509023868102        2.56565519699248
C           -1.05676169731580       -0.62958317468263       -0.00677301868936
C            0.36005337841100       -1.10675137097372       -0.11997192387325
O            1.19915032123914        0.04261382413418       -0.12038326926239
C            2.52688938162288       -0.20410974651192       -0.13200955179789
O            2.98162274898875       -1.31732898223839       -0.14361678116383
C            3.28811458403670        1.05799957093719       -0.13032349882866
C            4.61159218188960        1.05487697583185       -0.19873445214587
C           -1.98776738698516       -0.78445321528232       -1.03226142794171
Br          -1.53447621597144       -1.67579666871432       -2.63497354938039
C           -3.28669937461079       -0.29010146098344       -0.90399106209404
Br          -4.53303995022667       -0.50969711470498       -2.29359511720525
H            0.53196849129379       -1.68180588349095       -1.03420879963380
H            0.62539628727697       -1.74672018591423        0.73311562280721
H            2.69862599317314        1.96011781979157       -0.07417463792765
H            5.14794780326793        0.12151821288094       -0.25733290310964
H            5.18970933565125        1.96248441311811       -0.20332766751214
*
