! B3LYP def2-SVP TightSCF CPCM(Water)

* xyz 0 1
C           -2.96781259890263       -0.29531153237583        0.00420260731941
C           -1.59180308943038       -0.36214862024255        0.58614868952976
C           -1.31685272939588       -0.79784229292975        1.81222999315916
C           -0.52140317983029        0.09606922050035       -0.32841387548404
O           -0.67896046657501        0.43028507884023       -1.47362801832646
O            0.70411341354362        0.10822936213611        0.25710672474615
C            1.76353734368144        0.53217840146165       -0.57195795388971
C            3.04911696230373        0.42210504207901        0.23621648420047
F            4.10370708622116        0.80899748088376       -0.49576449310153
F            3.03181429104787        1.18998737865910        1.32839286446264
F            3.29250606296349       -0.82757071754689        0.63823993827979
H           -3.23088969176351        0.74002275459235       -0.20550487521331
H           -3.69763905639003       -0.71993855025575        0.68629562004518
H           -2.99580154243249       -0.83203206317241       -0.94205866101418
H           -0.31069088575163       -0.83055407458662        2.19045784844286
H           -2.09926114322968       -1.13526586778900        2.47113187973481
H            1.62422279238126        1.57391396107021       -0.88652250165635
H            1.84209843155897       -0.10112096132399       -1.46439527123466
*
