! B3LYP def2-SVP TightSCF CPCM(Water)

* xyz 0 1
C           -2.92712060955322       -0.64114286888490       -0.08255894077824
C           -1.66190691425465        0.15510098074323       -0.03304349471830
C           -1.61287284455144        1.48409953083731       -0.02067776479704
C           -0.42854078387589       -0.66258693086296        0.01347840803597
O           -0.38941494495726       -1.86357768919728        0.08126464361855
O            0.70226881688311        0.08842034775080       -0.02979985527091
C            1.91174532961914       -0.63507713686094        0.02246440079789
C            3.04677411562214        0.37895224340388        0.06773426973477
F            4.23255952922789       -0.23950732978726        0.16356634328689
F            2.95164716963515        1.20279283883007        1.11397884969527
F            3.09350723501718        1.14012681571649       -1.02881935781651
H           -2.95218497495331       -1.24058775581592       -0.99130385889322
H           -2.96256092252235       -1.33103549217522        0.75867269893474
H           -3.79511401463996        0.01036412624354       -0.05645169760733
H           -0.67958906384828        2.01733344678449        0.01670066261214
H           -2.51355381344445        2.07406493864366       -0.04905367184019
H            1.95375180936992       -1.26631058438322        0.91886471839402
H            2.03060588122625       -1.26901648098568       -0.86501535338848
*
