! B3LYP def2-SVP TightSCF CPCM(Water)

* xyz 0 1
O            0.79376149654137       -0.92473704618861       -2.71807883271879
C            0.93978213739493       -1.12784013321120       -1.53492555715633
C            0.17625328250876       -2.25047230430527       -0.79190477630080
O           -0.27364178105812       -3.17164563048887       -1.74819168454159
C           -1.16837776698782       -4.14575254869605       -1.25099961821723
O            0.96813155704384       -2.87300389424890        0.19754884111335
C            2.11837619650290       -3.51998773438315       -0.30957220937625
C           -0.95700948898016       -1.49475424485789       -0.11654852754940
C           -1.93098960008444       -0.91185836034807       -0.91515831963141
C           -2.96742302621934       -0.18736335966711       -0.35559851135010
C           -3.03927723376723       -0.03224056069176        1.02564300616338
O           -4.00934828838390        0.64683836159079        1.70096405061200
C           -4.98798729759477        1.36605024385388        0.98942913688864
C           -4.45297029739864        2.69367672149831        0.44083926419822
O           -5.50474295847610        3.31685430375911       -0.25869885889623
C           -2.05976221943413       -0.62450242746051        1.82560024700401
C           -1.02864134118020       -1.34492137072011        1.26237465514454
C            1.75838205984636       -0.30192155829564       -0.64628337715484
C            2.50554538378065        0.69712621707131       -1.14128188494811
C            3.37132289995846        1.59369512726723       -0.40565031707926
C            3.52398360718214        1.53060939676727        0.98288985924414
C            4.36311352401778        2.40938824236901        1.63823390476326
C            5.06739127879829        3.36869249628062        0.92660163050479
C            4.92627163785996        3.44511687812935       -0.44976729078000
C            4.08769096371480        2.56785054584546       -1.10867747904903
H           -0.75376419519950       -4.65058114439051       -0.37321830662704
H           -1.30577663304174       -4.86100089874144       -2.05912392869510
H           -2.13143154852791       -3.69983774554711       -0.98221601522539
H            2.53844791760635       -4.07888873146359        0.52442331816218
H            1.86033005611560       -4.20251517241723       -1.12317676586134
H            2.85170827145854       -2.79300648059905       -0.67616260337959
H           -1.87002207604834       -1.02921396666503       -1.98706977544190
H           -3.70714225201039        0.24727837871385       -1.00872088481818
H           -5.41709151508016        0.77767157849776        0.17123694212282
H           -5.78006096878231        1.57443643696800        1.71263897118860
H           -3.59566493646674        2.50543075942130       -0.22132210454624
H           -4.10912255734083        3.31464008977786        1.27967161286547
H           -5.20082459784654        4.16676016702128       -0.59370360309062
H           -2.13393392537372       -0.50460597351061        2.89481940893901
H           -0.28026279688681       -1.80727218263361        1.88552683013265
H            1.72849993994450       -0.55338187485217        0.40203511036917
H            2.46076667259249        0.85493015587999       -2.21327176698927
H            2.98068168404091        0.79055257537009        1.54925556881337
H            4.47078356557316        2.34903196487924        2.71120241485654
H            5.72303903648229        4.05355992617743        1.44339765568747
H            5.47223209396365        4.19133769569333       -1.00824586654752
H            3.97877103926957        2.62977408151666       -2.18216456285667
*
