! B3LYP def2-SVP TightSCF CPCM(Water)

* xyz 0 1
C            4.42836543345151       -0.42005047438395       -0.50998541518382
O            3.02552470526100       -0.26227520047071       -0.37573871108524
C            2.46765490909565       -0.90117556844311        0.67100826846180
O            3.11132242659323       -1.56460274989049        1.44980083374313
C            1.01595647061814       -0.70842046697918        0.76569062801785
C            0.30154126979224        0.01833565964956       -0.10271735652415
C           -1.13052409425726        0.24734083883688       -0.06988134815366
C           -1.70862269528347        1.03474771983717       -1.07032939708416
C           -3.06743382214633        1.28180084517749       -1.08401631148282
C           -3.87981033740330        0.74728146415210       -0.09721987940890
C           -3.32221406828085       -0.03519119890028        0.90201770875621
C           -1.96420839975837       -0.28399384655244        0.91816933347147
H            4.72430154895472        0.18872233847399       -1.36060740831927
H            4.67790214250506       -1.46921338510685       -0.68398417718709
H            4.93722569348880       -0.08700640731046        0.39737752492197
H            0.57183414508990       -1.21487819991279        1.60925656408846
H            0.82839865321378        0.49156858618412       -0.92169999634848
H           -1.07874976226776        1.45376014786917       -1.84217226958892
H           -3.49635220477365        1.89230797995500       -1.86505919478112
H           -4.94242820230099        0.93904465333248       -0.10598560617302
H           -3.95270101401502       -0.45331769800524        1.67300637443158
H           -1.54698379757717       -0.89478403751233        1.70306783542801
*
