! B3LYP def2-SVP TightSCF CPCM(Water)

* xyz 0 1
C            4.44794998531876        0.47443191129201        0.07854709302691
O            3.03538302525928        0.35612108673538        0.03427369618760
C            2.56629319214549       -0.83515826828450       -0.38511011630037
O            3.29243898619381       -1.74837765579602       -0.70094900489288
C            1.10103762942284       -0.90775323976986       -0.41910963987892
C            0.29651851641528        0.10667945517122       -0.07746913118899
C           -1.15443118136161        0.10703050688219       -0.09343263050282
C           -1.83035783077365        1.26570166885231        0.30130386963084
C           -3.21050606210563        1.31840764196658        0.30036756251242
C           -3.94671735889277        0.21346705533368       -0.09542836029957
C           -3.29191201907362       -0.94324352327442       -0.48896696126585
C           -1.91229405313049       -0.99882691033393       -0.48888397130036
H            4.87542062314720       -0.30335862263719        0.71493118172027
H            4.86933883215464        0.37442895193648       -0.92437053372230
H            4.65913563406759        1.46041931449387        0.48433317725276
H            0.72862837677847       -1.86462680687268       -0.75168256735724
H            0.75655916960630        1.03192030512566        0.24554531121737
H           -1.25988892546448        2.12994673413560        0.61052337919609
H           -3.71554713266355        2.22221717175246        0.60810950951049
H           -5.02584302847671        0.25286913772511       -0.09760930531608
H           -3.86326425054717       -1.80623237760723       -0.79799404557838
H           -1.41794212802002       -1.90606353682666       -0.79831651265099
*
