! B3LYP def2-SVP TightSCF CPCM(Water)

* xyz 0 1
C            4.81230784202202        0.13437184223597       -0.06977726378955
O            3.45273791219296        0.53885563887907       -0.11761979333097
C            2.51418689481855       -0.42654574962585       -0.13936618380843
O            2.76353947188896       -1.60831445002100       -0.12079046502998
C            1.17119470882950        0.16238313478081       -0.19195569462393
C            0.08728806346097       -0.62317858753766       -0.22521637786085
C           -1.30025203542869       -0.20969345956646       -0.28209207622009
C           -1.69312203389109        1.13123071482130       -0.31227341233282
C           -3.03023173057976        1.47113286854419       -0.36768121563583
C           -4.00363189674400        0.48434281013760       -0.39417214707712
C           -3.63057724461538       -0.84962608865117       -0.36491467579221
C           -2.29391601021376       -1.19286991437055       -0.30953532307212
H            5.22902966173218        0.41135006297419        0.90011270241221
H            4.88269995353484       -0.94610169440855       -0.20855233063578
H            5.34600268834018        0.65566248652474       -0.86423059908892
H            1.13624296192873        1.23986261516433       -0.20265782212866
H            0.26061278522324       -1.69326737554516       -0.20918566137584
H           -0.94709472362581        1.91018663617115       -0.29247427705956
H           -3.31860650167964        2.51185455257948       -0.39066834313341
H           -5.04811397759832        0.75465066259610       -0.43758413784405
H           -4.38485693562781       -1.62242037857331       -0.38561655999364
H           -2.00543985396790       -2.23386632710924       -0.28697734257847
*
