! B3LYP def2-SVP TightSCF CPCM(Water)

* xyz 0 1
C            1.73601338412330        2.38284783204601        0.19968287579521
C            2.41492688863692        1.05178920016514        0.10746696437230
C            1.74345990368529       -0.09036416976002        0.54687687362436
C            0.35155468193781        0.04053027450060        1.01162443138840
P           -0.81240443632639        0.18486906125346       -0.46097014423056
C           -1.87619204002558        1.62421727542480       -0.12137522998413
C           -2.11286578931982        2.47687822240052       -1.19120451111597
C           -2.91433734652485        3.59088482869678       -1.02086456236901
C           -3.47460576739526        3.85220463887963        0.21898842723436
C           -3.22970494148908        3.00415345703776        1.28782686163360
C           -2.43144044607532        1.88658747431620        1.12363119348375
C           -1.89236361454916       -1.26973773507610       -0.24311084943035
C           -2.20106541293060       -1.97135215823400       -1.40088680078658
C           -3.01487310262810       -3.08783042505281       -1.33641911290000
C           -3.51474171789599       -3.50566409809362       -0.11397532478208
C           -3.19849559718554       -2.80958600568130        1.04233483251055
C           -2.38963677648823       -1.68920387059878        0.98375411844762
O           -0.14238002422179        0.21889043980472       -1.76572946556924
O           -0.04558397112167        0.00769857077021        2.14660448814732
C            2.34024005534559       -1.34895144793591        0.47791245036151
C            1.57523421075150       -2.56317565563218        0.91041458344973
C            3.62969519775168       -1.44372870652252       -0.02181659621284
C            4.32404359629416       -0.32202388923578       -0.45150579338738
C            5.72274854906300       -0.43446705367526       -0.97661712792488
C            3.70406626133890        0.91914217500046       -0.37853831214465
H            1.51492868945152        2.63112333928481        1.23831455918438
H            0.79072613469880        2.35580255132298       -0.34654123489993
H            2.35834568347346        3.16803293261964       -0.22221718626586
H           -1.65640678398218        2.25279897939436       -2.14508595398216
H           -3.10126902850037        4.25468493996522       -1.85213731679639
H           -4.10092197807568        4.72169085179886        0.35493446600701
H           -3.66273510163027        3.21623684466243        2.25442321590125
H           -2.22724042857610        1.23426538579221        1.95814665902651
H           -1.78665003351386       -1.63228432194813       -2.33942216039118
H           -3.25702792841948       -3.63251036732211       -2.23721295950996
H           -4.14777200066856       -4.37910299985318       -0.05986036622278
H           -3.58278367478410       -3.14330692898280        1.99506640176133
H           -2.12977680274982       -1.15974206245900        1.88740784823044
H            2.18459673871972       -3.45857298016716        0.81790950860287
H            0.68285474085990       -2.68334371249375        0.29283399872384
H            1.25196889594619       -2.46402848553451        1.94600682243901
H            4.09788687811414       -2.41590997953682       -0.08344801112937
H            5.83522299530423        0.14327194669340       -1.89185759386623
H            6.42911301612671       -0.04152472047285       -0.24508434781945
H            5.98118105210126       -1.47033667357589       -1.18016206430948
H            4.23446519135645        1.79814722601581       -0.71612355430753
*
