! B3LYP def2-SVP TightSCF CPCM(Water)

* xyz 0 1
C            1.81878402961630       -0.60107915763230        3.10479407761034
C            2.17634473965473       -0.58590895330120        1.65146691886711
C            1.55437010566477        0.31099181377415        0.77905409716108
C            0.41832958635563        1.13005951013694        1.24744061903415
P           -1.22582718029118        0.18583196325476        1.12226813843432
C           -1.14159659222454       -0.80982356906691       -0.40324320158340
C           -0.41100697077616       -1.98857296720323       -0.32407946101782
C           -0.26041857668392       -2.78618142561206       -1.44250846346172
C           -0.84970124669259       -2.41320338312147       -2.63984704657795
C           -1.59794538513577       -1.24970335647199       -2.71418439586231
C           -1.74290724278836       -0.44293871760926       -1.59893938800163
C           -2.49924862067953        1.46236758738160        0.91673578001998
C           -2.34375614431107        2.54037156511668        0.05425006754785
C           -3.35212751379348        3.48104514988014       -0.04977394223172
C           -4.50872665528037        3.34767797689713        0.70268042651371
C           -4.65891024200146        2.27684183430477        1.56901039479274
C           -3.65230402863895        1.33469460740339        1.67863809710716
O           -1.40264654960769       -0.64632188284561        2.32385663750120
O            0.43749106882519        2.22255864664083        1.74006909640758
C            1.93493695431660        0.38732128946601       -0.56252769454066
C            1.31755557139232        1.41198094969505       -1.46564671656534
C            2.90361877342261       -0.48472972954292       -1.03267391037297
C            3.50372484204501       -1.41609393237849       -0.19773077909085
C            4.54871977131900       -2.35205171417721       -0.72327784488922
C            3.14424412141294       -1.43813972895629        1.14261470327216
H            2.05081561396525        0.36331697178885        3.55612207930511
H            0.75315823162118       -0.77768924469956        3.23891964867298
H            2.37235829242626       -1.37503941427713        3.63041122149086
H            0.02471268499631       -2.27192854064056        0.62290769007978
H            0.31483833188814       -3.69790557034086       -1.38118368326161
H           -0.73342946565056       -3.03447302292555       -3.51559161327714
H           -2.06893930716862       -0.96824832424345       -3.64474598824125
H           -2.32953714407297        0.46371397688613       -1.65436052194098
H           -1.43494770069439        2.64822448583438       -0.52050475436713
H           -3.23548913800546        4.32358019149153       -0.71584767766113
H           -5.29222793504103        4.08639314621552        0.61788430371959
H           -5.55752191325463        2.17999990224533        2.16026870578222
H           -3.73581124208434        0.49505960302413        2.35370559418670
H            0.27295398108774        1.16854418044651       -1.66318456147404
H            1.84295184498710        1.45060584745619       -2.41680837394141
H            1.35768680649723        2.39808444254294       -1.00444757372685
H            3.19441464575362       -0.43572454645075       -2.07236041924007
H            5.53769535728850       -1.90694824035024       -0.60987223199894
H            4.53884408489675       -3.29113245355837       -0.17509132520734
H            4.39023994126655       -2.55582042136031       -1.77960874463127
H            3.62623641417437       -2.13960634513695        1.80867301566979
*
