! B3LYP def2-SVP TightSCF CPCM(Water)

* xyz 0 1
C            7.63662771855484        1.20195960026384        0.77046594659587
C            6.52183132511079        0.85006670189978        0.14788684929107
C            5.20368383766580        0.95394606088100        0.81249101043270
O            5.01285277092263        1.35163486951833        1.93515846448343
O            4.22845691657115        0.54129378284506       -0.00625966930366
C            2.90058491189849        0.58715537524836        0.51216388151775
C            1.93449328908674        0.11629070560620       -0.57203827724978
C            2.19002855487714       -1.35561660311753       -0.92118699259560
C            1.23116906968319       -2.16443253023243       -0.04391911351588
C            0.04675811821107       -1.24599879685689        0.28767522529447
C           -1.19999121899974       -1.44752731202170       -0.58859603630964
C           -0.84080600278042       -0.68063312583583       -1.85951497392040
C           -0.54786098006851        0.62270423450909       -1.12060274259251
C           -1.88183444344681        0.85530861275036       -0.39997574028318
C           -2.31476169248057       -0.57002352972120        0.00960065440352
C           -3.69515536684074       -0.94558601833830       -0.53065793646344
O           -4.69984896977911       -0.03720257029332       -0.08657290132077
C           -5.16969928280858       -0.21784984433475        1.15385699917931
O           -4.80726214069257       -1.10704179082363        1.88597556124160
C           -6.19447388347233        0.78157344902325        1.52975175132734
C           -6.56398004832504        1.79125546817351        0.75632223089810
C            0.48476695680880        0.19607040969491       -0.06501052118082
H            8.60430652624061        1.13289711599731        0.30384493297187
H            7.59735503517731        1.57370511739401        1.78160588085635
H            6.50222970340263        0.47207082170339       -0.86304855352691
H            2.84058705306483       -0.05384512003269        1.39861570008231
H            2.68021982342912        1.61543238926491        0.82155238695379
H            2.08323862123742        0.75457834619716       -1.44657267689826
H            3.22988706140763       -1.62123792879697       -0.73510223572031
H            1.99650469420528       -1.53380367856124       -1.97830360368250
H            1.73261559324583       -2.45763459789380        0.87885019229085
H            0.90233086314852       -3.07519240859806       -0.54338393342654
H           -0.21872482530079       -1.35253202578157        1.34061893174998
H           -1.48683303097418       -2.49066451764497       -0.71087580094237
H            0.01454789490033       -1.09070965123264       -2.38469679266236
H           -1.67258033193940       -0.58996045200038       -2.55555669708092
H           -0.22830860227792        1.46728840632829       -1.72910036649249
H           -1.77664822868801        1.51784995137772        0.45830286415855
H           -2.61363259928118        1.29765635182399       -1.07687865741962
H           -2.35426545035160       -0.67775669858344        1.09606677074773
H           -3.72796771930477       -0.89102700313684       -1.62036694515645
H           -3.95741608861930       -1.95698527658046       -0.20100415878966
H           -6.61981528870102        0.61949906137005        2.50983183057515
H           -7.31250339924739        2.49985316681610        1.06890231224390
H           -6.12645955356459        1.93735584587648       -0.21652713178834
H            0.43575480910069        0.86513563587350        0.79621008104180
*
