! B3LYP def2-SVP TightSCF CPCM(Water)

* xyz 0 1
C            7.64006275192503        0.85907818724592        1.52053890002237
C            6.53100688552356        0.24700957560778        1.13342149185504
C            5.24158629083252        0.96848169010372        1.06378886141847
O            5.07652755398462        2.13433439879530        1.32619497896826
O            4.25991289865758        0.15190413042215        0.66132002395182
C            2.96256037128587        0.73111197483355        0.54295898764165
C            2.03924605529975       -0.26693796449369       -0.13849412614873
C            2.40392837891789       -0.53248028715453       -1.60175534876885
C            1.12245528584545       -1.11492408243871       -2.19353054366628
C           -0.00226421921325       -0.31335254638347       -1.52548706839764
C           -1.20602594729463       -1.14113381971843       -1.05390482251549
C           -0.69666971284369       -1.72701385755887        0.26277889918429
C           -0.34794705934373       -0.36687969768824        0.86445887027135
C           -1.69615481456989        0.35757056571716        0.76823387599591
C           -2.27892537928927       -0.14865715573066       -0.57066129153252
C           -3.64407391045461       -0.80586223849451       -0.41051094194811
O           -4.58488346510545        0.19710870078375       -0.03366537335988
C           -5.84531453699353       -0.21553724002450        0.13976748793161
O           -6.19291778215905       -1.36346641321532       -0.00217269039034
C           -6.76455895563349        0.87918481264629        0.52170086649091
C           -6.37942045785005        2.12922519799892        0.73018793965128
C            0.58552231099744        0.22904570854107       -0.19729568790826
H            7.61482232010433        1.90206399397270        1.79205183704277
H            8.58833658373492        0.35314928842899        1.57912148371885
H            6.49726022369627       -0.79432713489255        0.85155606121404
H            2.59536645789106        0.98218868249403        1.54553427202834
H            3.03981296010319        1.66186194200723       -0.03133321144247
H            2.09398780434296       -1.20512755214119        0.42012884975813
H            2.64519438893142        0.41153858055121       -2.09389439197979
H            3.25775244526234       -1.20006156982284       -1.70101254027094
H            1.04042593105520       -2.17169200167827       -1.93781630350215
H            1.09588662794727       -1.03001661101014       -3.27895381759892
H           -0.32015777232519        0.49440654374941       -2.18696187202899
H           -1.56812813952494       -1.85171847438916       -1.79498434687301
H           -1.46336442430032       -2.25708810065224        0.82295598317580
H            0.16351676672566       -2.37938429363499        0.13707974656465
H            0.07661191248985       -0.37248416629211        1.86704920734877
H           -2.34430472610227        0.07828930850048        1.59882855801146
H           -1.58101153349244        1.44020622088180        0.78361586159687
H           -2.40095925135020        0.67158865383891       -1.28220427789611
H           -3.97233996163959       -1.26245595298780       -1.35215570498115
H           -3.63509344826017       -1.58908121260759        0.35531876978817
H           -7.79390324464591        0.56651968688154        0.62317514810197
H           -5.34748208399222        2.41939884301038        0.62688578474807
H           -7.08012823555410        2.89835585111846        1.00883431205311
H            0.57424485638975        1.32030583490112       -0.16069469731186
*
