! B3LYP def2-SVP TightSCF CPCM(Water)

* xyz 0 1
C            5.58690271413780        3.52311866114718        1.07720494589310
C            4.51682195753428        2.75161051564852        0.95876435803478
C            4.63154682765838        1.34994655717919        0.49796767150270
O            5.66064590222083        0.79406183268976        0.20239971179410
O            3.42736108937426        0.76722481893494        0.45318816992916
C            3.38478318946274       -0.59696960398608        0.03865703152674
C            2.09904132726655       -1.24090168997240        0.55344382223859
C            2.03998506679005       -2.71278439199824        0.12819786922880
C            1.28446175050681       -2.72710368520657       -1.20405502626849
C            0.38880652052211       -1.47924870023134       -1.22568755661485
C           -1.08327348183347       -1.73283882707147       -0.86487662751826
C           -1.03774103870039       -1.83138052205781        0.65822964486579
C           -0.36683324389367       -0.47130133519965        0.83425152898330
C           -1.38592760311196        0.43834811015762        0.13755818663455
C           -1.83605527636011       -0.40509172520215       -1.07719008100157
C           -3.34967553144581       -0.61012016360993       -1.13571694492874
O           -4.01970237650994        0.62825637758932       -1.36362289622882
C           -4.70795508884710        1.16744497743290       -0.34995092053467
O           -4.81361490500394        0.67033689063927        0.74484231480360
C           -5.32696765715901        2.44506004671232       -0.76690620711594
C           -6.08331588067268        3.14325864040122        0.06677909574376
C            0.86948521835531       -0.56459664471301       -0.07411065844739
H            6.56258474592349        3.13261392229720        0.83679138184758
H            5.52877952804359        4.54493033342604        1.41067197986685
H            3.51585149541944        3.08596612979296        1.18529157284531
H            4.27049266925156       -1.10932241034281        0.43065629031066
H            3.42356622769055       -0.63137977714173       -1.05581136191698
H            2.08527773697112       -1.13760154352812        1.64123056379614
H            1.51456733843237       -3.29996200303938        0.87998505128604
H            3.03867266267009       -3.13703970671403        0.02518900868080
H            0.70004620501637       -3.63902898958027       -1.32237857702009
H            1.99521524678771       -2.68170945023888       -2.02977803446540
H            0.45648130738539       -0.99353421480927       -2.20094356130904
H           -1.52688815666978       -2.57392240326192       -1.39611442383103
H           -0.45008554508709       -2.66761628317915        1.02055935656025
H           -2.02523780499286       -1.86916483633016        1.11364436149849
H           -0.13926640491288       -0.16779589650236        1.85444967319019
H           -2.22615242938831        0.63911156845233        0.80224638717139
H           -0.95507147277403        1.39399930527856       -0.15938038209515
H           -1.53728732887632        0.06729272037693       -2.01691754292856
H           -3.72609205814788       -1.04734808433380       -0.20601361159003
H           -3.61152101353745       -1.25735248924448       -1.97836845774057
H           -5.12000417650265        2.75302405430798       -1.78029564777310
H           -6.54552223035467        4.07361831683115       -0.21486700147950
H           -6.25719519071022        2.78359118943311        1.06806636104780
H            1.15000916806710        0.43230340881819       -0.41659081845639
*
