! B3LYP def2-SVP TightSCF CPCM(Water)

* xyz 0 1
C            2.49685864079034        1.27795176982573        0.34955154374170
C            2.30239312719140       -0.04764779904930       -0.31275714996264
C            3.28622768195374       -0.77551131870073       -0.82991741422724
C            0.91080309459131       -0.58358806571791       -0.39600011128695
O            0.63811411808122       -1.65690526366467       -0.88019997669926
O            0.03601157545247        0.27308020063382        0.12705974186616
C           -1.38142304587250       -0.02049361889106        0.16276122962262
C           -1.92213933468864       -0.19492521663683       -1.25610925223453
C           -1.99953023441036        1.21245865670083        0.82374689209479
C           -1.63994480399987       -1.26804863508746        1.00696011305587
H            1.91172427422700        2.04165012941407       -0.15930352304268
H            3.54602937152944        1.56099911034387        0.33540186797977
H            2.15127043676895        1.23529860260294        1.38077284394104
H            4.31266252674149       -0.45156616881755       -0.80650562547144
H            3.07529565424255       -1.72433468616764       -1.29331076634890
H           -3.00105719789846       -0.31718450889437       -1.22308100192040
H           -1.48153302629590       -1.07127516957617       -1.72313175930637
H           -1.68432554024792        0.68038398727513       -1.85710356413459
H           -3.07547144503748        1.09120183269674        0.90497849354469
H           -1.58207016728964        1.35184989055191        1.81744607631667
H           -1.78616264622059        2.09932993557380        0.23275893078658
H           -1.21857029160592       -1.14026893051411        2.00181452564347
H           -1.18536967082821       -2.13849281125521        0.54248404093057
H           -2.70979409717456       -1.43395992264570        1.09605184511126
*
