! B3LYP def2-SVP TightSCF CPCM(Water)

* xyz 0 1
C            3.40823792501235       -0.68011001086804       -0.31330458792158
C            2.25494919360570        0.14713343926278        0.15733987110498
C            2.38342428450275        1.28374837228711        0.83212432111709
C            0.91369366406171       -0.41392758168048       -0.18836099371004
O            0.77282782221476       -1.49635455288944       -0.70778081542260
O           -0.07307127044862        0.41638718977068        0.14279649156398
C           -1.45995948907449        0.07622292165915       -0.10308694258600
C           -1.84265579381000       -1.18619586746351        0.66900971484605
C           -1.70069595441515       -0.10151462799568       -1.60216774423663
C           -2.23612644162524        1.28323965177642        0.42547156800045
H            3.26439857820780       -1.71659648679613       -0.01375512416933
H            3.45406069800896       -0.66328839629464       -1.40150686443970
H            4.34572959712052       -0.30749785113398        0.08946143746126
H            1.52656818056611        1.85087618628490        1.15081937388990
H            3.35347887587177        1.68042834816460        1.08274425792202
H           -1.61480347818905       -1.06133490465828        1.72551244437251
H           -1.29200259631126       -2.04264194621785        0.29076750434613
H           -2.90677869815802       -1.37308501960378        0.55725781662047
H           -1.14387657823050       -0.95694065158887       -1.97464042489201
H           -2.75947900433327       -0.26268359862995       -1.78579295098864
H           -1.37986430596576        0.78885564971229       -2.13982394932869
H           -1.92969678076497        2.18266386276907       -0.10215603615667
H           -2.03647019012123        1.41977453784856        1.48521114144906
H           -3.30188723772490        1.13284133628498        0.28209349115793
*
