! B3LYP def2-SVP TightSCF CPCM(Water)

* xyz 0 1
C           -3.60296980100925        0.63043035916380        0.71841616451630
C           -2.57526022197760        0.11289626103613       -0.23605097494669
C           -2.85624117886692       -0.40356134536183       -1.42757337329871
C           -1.17468535811846        0.21921394666530        0.25639832896795
O           -0.86583825712556        0.67391977028504        1.32847521090110
O           -0.28073621691534       -0.25480746408240       -0.63288327389900
C            1.06819151973940       -0.21131559208262       -0.27593646430497
C            1.82850842834306        0.89869943864071       -0.60834474773860
C            3.17679804146889        0.91369188971687       -0.29811706910548
C            3.75695587542356       -0.16798586641609        0.34219386125562
C            2.98770927093672       -1.26919711589747        0.67769066246056
C            1.63845170277476       -1.29536417544681        0.37254682359067
H           -3.53914660414720        0.08756697042875        1.65987252850676
H           -4.60262169632049        0.52739550199328        0.30657300255135
H           -3.40666124758257        1.67811539553186        0.93967721543190
H           -2.08416233672715       -0.76611648587888       -2.08307110547098
H           -3.87146691295840       -0.47953647678567       -1.77982753602827
H            1.35982673199715        1.73601372658004       -1.10275535877364
H            3.77363375028779        1.77599180846547       -0.55484251074318
H            4.80914684566427       -0.15120692553310        0.58330339564922
H            3.43699905104262       -2.11099934951815        1.18263803719119
H            1.02357061407072       -2.14384427150426        0.63161618328691
*
