! B3LYP def2-SVP TightSCF CPCM(Water)

* xyz 0 1
C            3.58428415836660       -0.97455226053738       -0.76233238627577
C            2.56474109378161       -0.32993123857981        0.12133531107269
C            2.82606275591078        0.16198044204026        1.32748060428369
C            1.20358422648919       -0.24193474504621       -0.47605899767435
O            0.96853426773527       -0.42058273164586       -1.64418153695773
O            0.26897105194990        0.04117494600265        0.45159897971843
C           -1.06046393896348        0.21003048249526        0.08605928318844
C           -2.01529407909817       -0.37789682482029        0.90602447270860
C           -3.35717348799730       -0.20840840178674        0.62141762376016
C           -3.74645747242425        0.54088751862062       -0.47671248092475
C           -2.78926204144307        1.12873317778014       -1.28502713739621
C           -1.44213544379654        0.97181411232408       -1.00828954976783
H            3.53028589968249       -0.54213611790843       -1.75950665002912
H            3.36923481467299       -2.03835800961215       -0.85953708891973
H            4.58487471108909       -0.84903623655539       -0.35941192921225
H            3.81672228914475        0.11560903802745        1.74813354563136
H            2.06390803948662        0.62602099446046        1.92848218375075
H           -1.69152218665986       -0.96050860405335        1.75466478536794
H           -4.09968896314279       -0.66701194306905        1.25724393894080
H           -4.79489751835143        0.66668920661132       -0.70086955936827
H           -3.08847737045240        1.71742245676659       -2.13918145607729
H           -0.69583180598024        1.42999573848471       -1.63747495581929
*
