! B3LYP def2-SVP TightSCF CPCM(Water)

* xyz 0 1
C           -3.61285847945789        1.08483749283398        0.06695763551950
C           -2.59087842570519        0.00263249571915        0.20720897841873
C           -2.87196505202918       -1.25389591192270        0.53463004157802
C           -1.19680980619579        0.42556593910317       -0.10241478913764
O           -0.91385463510543        1.42823629529162       -0.70735972327136
O           -0.29341935216929       -0.44296135170284        0.39091839133092
C            1.06090484028549       -0.27394558810198        0.13334227204513
C            1.54383614627148        0.00065511112836       -1.13754798725884
C            2.91017978775845        0.10097280801571       -1.33417531653218
C            3.78681155110101       -0.07607378891984       -0.27800340200696
C            3.29650860053655       -0.35695659262084        0.98671588411494
C            1.93395896994046       -0.45559034746183        1.19795877854417
H           -4.61891044069215        0.67631653062006        0.08853876673497
H           -3.50326293573739        1.80421306451155        0.87801981608332
H           -3.45078096363358        1.62123761887004       -0.86585150185851
H           -2.10409098640480       -2.00342492844241        0.61416903850048
H           -3.88312417931959       -1.56965347682883        0.73108677100263
H            0.85899607410181        0.13705645570713       -1.95939301756930
H            3.28837408144802        0.31626444591505       -2.32220511394768
H            4.85126376700563        0.00340705819973       -0.43952114378817
H            3.97640589553857       -0.49705859233289        1.81368462006173
H            1.53271754246241       -0.67183573758148        2.17602900143633
*
