! B3LYP def2-SVP TightSCF CPCM(Water)

* xyz 0 1
C            2.85218410851659        0.88317657101444       -0.28191205365510
C            2.27562559410731        0.04353068390669        0.80793395931512
C            2.64251843737859        0.10130548670593        2.08503434361320
C            1.18409294958560       -0.89006913215216        0.43340020150902
O            0.48157428623217       -1.48051899393360        1.22368180396147
O            1.06956804173453       -1.02058225411447       -0.89510244206203
C           -0.06351201949961       -1.71204412458968       -1.38830620400133
C           -1.17558483260573       -0.70136171301969       -1.72952995236359
N           -1.59372933567167        0.08434861297721       -0.60616429067346
C           -2.32426595931333       -0.46511801697636        0.51700645471151
C           -2.42630828550617        0.73479880777386        1.47070375481950
N           -1.36633670364556        1.58947714476862        0.99069388554054
C           -0.96219099861172        1.25464556647042       -0.27014252703654
O           -0.19833914474719        1.88250335980805       -0.96949760806170
H            2.05726831525977        1.47369737060612       -0.73799953032906
H            3.28080388589101        0.25332498224275       -1.05908055962554
H            3.61812350301174        1.54661450428391        0.11013111003800
H            2.16986747021927       -0.52696937932913        2.82090752700084
H            3.41694998808186        0.76681608196723        2.42558076894925
H            0.25297873250077       -2.23338038971197       -2.29368723202298
H           -0.40661335587335       -2.43422327117409       -0.63956901380419
H           -2.03495542193497       -1.23859474661129       -2.14066467676333
H           -0.78792504199339        0.00421086295984       -2.46957107498253
H           -1.76290994361946       -1.28071571991000        0.98830438013594
H           -3.30132460270041       -0.83472229337806        0.19426911969826
H           -2.25423623078565        0.44867217291223        2.51062645586548
H           -3.40530094631880        1.22810927241482        1.39475741531526
H           -1.23801948969900        2.52306855409348        1.33915498490852
*
