! B3LYP def2-SVP TightSCF CPCM(Water)

* xyz 0 1
C           -3.76814685555902       -1.44367611207215        0.28956655326213
C           -2.72070729409844       -0.45318287063184        0.68647346950421
C           -2.92756477981543        0.85696505510342        0.76866714009920
C           -1.39652899871802       -1.05427950239910        1.00468158605037
O           -1.19057712804847       -2.24259290238704        1.05804093800395
O           -0.44829835516208       -0.13049669431122        1.22658210438878
C            0.85800992124595       -0.61143794831510        1.53045860016429
C            1.61881176646746       -1.07105880909876        0.27913824225320
N            1.93233487585842       -0.00301722993956       -0.62553051061401
C            0.93462092547428        0.67250965677255       -1.42497871272518
C            1.76598501454371        1.73252089792497       -2.16298448319171
N            2.93170508428007        1.84240367660187       -1.31542426973099
C            3.07693812592070        0.74085245374255       -0.50785267721343
O            4.03346236697894        0.47575063268767        0.18181191619198
H           -3.47205847088634       -1.94958839409250       -0.62844875576162
H           -4.72715527671361       -0.95689546315825        0.13926854396558
H           -3.86142751651772       -2.20702348226962        1.05993715084291
H           -2.14840376755778        1.53512291368906        1.06953108008562
H           -3.88945886785740        1.28706455724398        0.54451090606454
H            0.77959263247254       -1.45146043845870        2.22782002963982
H            1.37610761295914        0.22605734824952        2.00055622161815
H            1.03199838212514       -1.82981314666007       -0.24611217611752
H            2.56997772470346       -1.50148908356424        0.60115025453033
H            0.44536640164244       -0.03019009382060       -2.10515856753649
H            0.16943891268550        1.13722000322056       -0.79101929002620
H            2.03052641974493        1.39681502374892       -3.17501168696987
H            1.24651103975363        2.69090705972646       -2.23728707595725
H            3.74893910407722        2.34201189247052       -1.62256553081776
*
