! B3LYP def2-SVP TightSCF CPCM(Water)

* xyz 0 1
C            4.70520943903751        0.44196364776030        0.32228857139380
C            3.61731221454616       -0.52814171398093       -0.00999709231666
C            3.77377742932101       -1.84748984097469       -0.02419240672585
C            2.31496649194863        0.10524576711097       -0.35406528550750
O            2.16314421171413        1.28811040636279       -0.52588763325265
O            1.31697272862633       -0.79118215863009       -0.46339878584742
C            0.02993085940645       -0.28118407609058       -0.78363050663889
C           -0.66355407336821        0.29714768094153        0.46088820550456
N           -2.08180631239158        0.40673376904272        0.27775076645309
C           -2.96308996898448       -0.72937777590020        0.42725936631529
C           -4.35650926181591       -0.09917413355129        0.28175054333524
N           -4.08770548663323        1.29239144328703        0.55722095017955
C           -2.75458526403518        1.59444712588079        0.43284560075008
O           -2.26294008026632        2.69497995416029        0.46946898521066
H            5.65207283969261       -0.06959219065115        0.46813529741702
H            4.80145086338011        1.17312281621509       -0.47791405020878
H            4.44839153971673        0.98981202722506        1.22795990479288
H            2.96420740850821       -2.50929255392515       -0.27575094592493
H            4.72122660018779       -2.30159280670798        0.21462368206557
H            0.11653487924339        0.48849414020113       -1.55631534547310
H           -0.52652015740217       -1.13805462461129       -1.16941407916764
H           -0.28278693222177        1.30254152980793        0.65941488421839
H           -0.43822009519589       -0.35204768928038        1.31874573662490
H           -2.77001261461365       -1.48539326247318       -0.33801218705226
H           -2.83190577190972       -1.19288613003082        1.41532276148010
H           -5.07408743418484       -0.50668378866381        0.99836410215951
H           -4.75298467070850       -0.24364804865949       -0.73221321942164
H           -4.77849038159719        2.00075048613402        0.37697917963912
*
