! B3LYP def2-SVP TightSCF CPCM(Water)

* xyz 0 1
C            4.97262814125160        0.29735747834519        0.48249380183162
C            3.76260012854816       -0.14043652968451       -0.27922468905139
C            3.80531097887400       -0.81749026653567       -1.42193642138793
C            2.46951275522894        0.23707004547621        0.35135479180966
O            2.36997656651248        0.76786197067347        1.43106964420803
O            1.40610038212758       -0.08153937438528       -0.40344262076555
C            0.13524209441927        0.25291235212289        0.13945595753174
C           -0.93752306374156       -0.31946442470363       -0.78893519143378
N           -2.25830378204664        0.02131850161154       -0.34800102868068
C           -2.92958557710001       -0.68079940641502        0.72189945232951
C           -4.31668531212557       -0.01859858830782        0.74130436771261
N           -4.37965097078469        0.59529931870768       -0.56490921918992
C           -3.13898418624610        0.72005690129180       -1.13521017478444
O           -2.86810750421895        1.31479720059178       -2.14999181638370
H            4.89780403563844       -0.03405916244229        1.51635093051531
H            5.87877117522552       -0.09935894414981        0.03453904618220
H            5.02501409097692        1.38503541372408        0.49702281733535
H            2.90782521023005       -1.11036348019000       -1.93719789286117
H            4.74308734415829       -1.09504582850953       -1.87363257079713
H            0.04134224660137        1.34218323910350        0.20961539543250
H            0.05671347063927       -0.16365892038936        1.15052529105295
H           -0.81257607563917        0.11055332903586       -1.78640785174325
H           -0.81834609626100       -1.40860979421025       -0.85118431822396
H           -2.39932713456357       -0.55716696885835        1.66923772349924
H           -2.99913067716286       -1.75429111050658        0.49564980304273
H           -4.38735909533743        0.72762062864821        1.54376020303343
H           -5.12309528325735       -0.74509527756580        0.86838185803843
H           -5.10325686194485        1.25391269752237       -0.79542428825341
*
