! B3LYP def2-SVP TightSCF CPCM(Water)

* xyz 0 1
C           -1.50303630442806        1.70343781655062        0.34312876456530
C           -1.87625257006269        0.22644708627645        0.44899160376149
O           -2.17434923248519       -0.33843361982817       -0.80884658703127
C           -0.73986353951804       -0.59666079484292        1.05650644668901
O            0.45728621509551       -0.35858423996940        0.32972786804148
C            1.49830386109817       -1.13607358748188        0.64638098244128
O            1.47020220265392       -1.96096905283727        1.52756334219793
C            2.68748781784528       -0.87069037726917       -0.19382298544789
C            2.65435650387328       -0.16205945253335       -1.31219352107896
H           -0.63581167759010        1.81546277487306       -0.30169186605605
H           -2.33172676536818        2.27546487178662       -0.07097956195118
H           -1.26492443865939        2.09915745304921        1.32617296016320
H           -2.74833969179134        0.11603512052042        1.11770511066381
H           -2.78216855702338        0.24358214080799       -1.27752759798422
H           -0.58957700836172       -0.32448278561788        2.10710813390412
H           -0.98632060424920       -1.66218390735917        1.00338868118250
H            3.59113623916284       -1.34167861440036        0.16571080418532
H            1.73755453443894        0.27886260014258       -1.66513518299916
H            3.53604201536950       -0.00663243186732       -1.91119839524700
*
