! B3LYP def2-SVP TightSCF CPCM(Water)

* xyz 0 1
C           -3.10625712987518       -0.32053923957351        0.23176357251812
C           -1.77922457029488        0.31526426994584        0.64715044494251
O           -1.80530384183743        1.71714483537094        0.48463066634195
C           -0.63204722211795       -0.21052932468808       -0.21304137502835
O            0.59491085270290        0.01000297148734        0.47028412448279
C            1.71149062174248       -0.26495857422503       -0.21703104875889
O            1.71414161472258       -0.69770426004205       -1.34302572582719
C            2.91339810503406        0.02679235493463        0.59412035919759
C            4.13090751142915       -0.19039673021058        0.11955479572867
H           -3.06887072491401       -1.39820734363633        0.35966048183757
H           -3.91802911038236        0.07219845961357        0.84114049124157
H           -3.31291505753303       -0.09324520276222       -0.81115173176187
H           -1.55943209832402        0.06452961307962        1.69736172796480
H           -2.52569958857401        2.08168728015250        1.01012581101906
H           -0.61476353018869        0.32054646730263       -1.17016529149012
H           -0.74539586672525       -1.28247033801916       -0.40639875424957
H            2.72371737067217        0.42275663778809        1.57995959989380
H            4.26040355134889       -0.58865062632543       -0.87379905804857
H            5.01896811311488        0.01577874980703        0.69195790999598
*
