! B3LYP def2-SVP TightSCF CPCM(Water)

* xyz 0 1
C           -2.01828714635802        0.36818967125509        1.14961305363055
C           -1.89431373074704       -0.40769256408284       -0.15651466406354
O           -1.68100374076945       -1.76035622180573        0.17078674739313
C           -0.76441525091329        0.15207029486621       -1.03077034170112
O            0.45973041916837        0.07472054360774       -0.31366604731413
C            1.54797353226871        0.52347117437902       -0.95094697451331
O            1.51926206653624        0.97774702243862       -2.06938540660361
C            2.77769820332285        0.40058913853708       -0.13909497954410
C            2.81712149134891       -0.16893677603351        1.05646057734801
H           -2.79878940970425       -0.07686337176605        1.75913020502415
H           -2.26271230196080        1.40736145645185        0.94972378353901
H           -1.07856640179924        0.31292086350911        1.69047387073749
H           -2.82853136611161       -0.30628338334778       -0.73728705901388
H           -1.47835778160234       -2.25807139932118       -0.62863031928794
H           -0.96839769460282        1.19533413371154       -1.29700005251307
H           -0.66969044024280       -0.42009579489033       -1.96353684967775
H            3.65662877121486        0.81177035471153       -0.61444279437254
H            3.73386994120906       -0.24443200814947        1.61681887457326
H            1.93078283974267       -0.58144313407098        1.50826637635939
*
