! B3LYP def2-SVP TightSCF CPCM(Water)

* xyz 0 1
C            5.10117338931915        0.39887472659950        0.27537416120381
C            4.04750467413507       -0.23284965909417       -0.61442229639708
O            2.76043466802701        0.07175641456052       -0.08026035049767
C            1.70804948148372       -0.42439925933211       -0.75030049323909
O            1.81496671673816       -1.09849589450592       -1.74814444975838
C            0.44383342455399       -0.03600268703378       -0.11138018190919
C           -0.72423746494487       -0.43176378097020       -0.63290470146913
C           -2.05653930514835       -0.14013731453098       -0.14293580041940
C           -2.29495313012859        0.63777348705379        0.99340424022919
C           -3.58546098912886        0.88768092910870        1.41631063059438
C           -4.66443466542003        0.36867566836845        0.71760379041079
C           -4.44502871223343       -0.40488613659903       -0.41077231835330
C           -3.15543529234645       -0.65638976519625       -0.83639221053668
H            6.08863783167113        0.20274819299666       -0.13233210085288
H            4.94649552656265        1.47301896306335        0.33189982001555
H            5.04205058813633       -0.01367871373703        1.27919609523037
H            4.10534841155109        0.15507048181226       -1.63822172705818
H            4.16305494547865       -1.32195371589816       -0.66049133837268
H            0.53821372375745        0.57129625639718        0.77423569741058
H           -0.67352915418074       -1.04157639794028       -1.52799012134088
H           -1.46450961630107        1.04829166077178        1.54630429751237
H           -3.75474729054642        1.49109797145271        2.29614501130556
H           -5.67207858478255        0.56682755399501        1.05168187923149
H           -5.28243963874201       -0.81143009995741       -0.95841903170322
H           -2.98637053751107       -1.25954988138456       -1.71662450123629
*
