! B3LYP def2-SVP TightSCF CPCM(Water)

* xyz 0 1
C           -5.09412095378001       -0.49428381059808       -0.12325413100883
C           -4.04800931912099        0.52984257504590       -0.52171209665694
O           -2.75642660842121       -0.03406408182999       -0.30391122825799
C           -1.70847156060778        0.77130604688937       -0.53975440262309
O           -1.82061603348575        1.91457677564472       -0.91556956223199
C           -0.44210468855305        0.07484915513429       -0.27870725851552
C            0.72703540667149        0.69913246426875       -0.46862168862579
C            2.05655324704608        0.16283587774723       -0.25749221816263
C            2.28683422061994       -1.14623186300081        0.17503160791438
C            3.57381270403872       -1.60846769606494        0.36509488661150
C            4.65852702030565       -0.77806005011620        0.12882249685679
C            4.44730339176911        0.52183402485882       -0.30149458014508
C            3.16105961356478        0.98692592240224       -0.49308222346904
H           -6.08649306421748       -0.08805507664247       -0.29520849298111
H           -4.98995986036532       -0.74694953474946        0.92830331025586
H           -4.97341933016622       -1.39978449164192       -0.71196746302919
H           -4.13828834171893        1.44662884092681        0.07188022824945
H           -4.13988371962140        0.80282834254362       -1.57930497233614
H           -0.53448840182063       -0.94272451752076        0.06536305199668
H            0.68041874920480        1.72466115607384       -0.81723765011850
H            1.45287812552723       -1.80440150457481        0.36216496929357
H            3.73590788145163       -2.62267447807397        0.69993192006799
H            5.66337681482811       -1.14362701107550        0.27954941410350
H            5.28905726709610        1.17262760853356       -0.48736679533564
H            2.99951743975550        2.00127332581959       -0.82855212185229
*
