! B3LYP def2-SVP TightSCF CPCM(Water)

* xyz 0 1
C            5.08395372169034        0.12536861759707        0.49138902964283
C            4.04412734687863       -0.56716845361950       -0.36927106162995
O            2.75311682507203       -0.10511961448849        0.02338598067472
C            1.70629583924186       -0.64429806225267       -0.62183557816961
O            1.81858097465992       -1.47801697190146       -1.48988574057411
C            0.44138927126818       -0.08374999325969       -0.12902465039666
C           -0.72526048293316       -0.48228997605722       -0.65137431218577
C           -2.05364327846514       -0.02945499544864       -0.29015577816031
C           -2.28383609007976        0.93800885536291        0.69218132232529
C           -3.56918868671986        1.34061498563354        0.99540655524845
C           -4.65185717224436        0.78864173669118        0.32815693410233
C           -4.44069890825945       -0.17303163722317       -0.64654766647828
C           -3.15600572637458       -0.57759987119641       -0.95252971243312
H            5.01706937641873        1.20272834522312        0.36390035648871
H            4.91978742077829       -0.11075783779701        1.53944424089861
H            6.07737781819043       -0.20631861195515        0.20295021595926
H            4.08267613751282       -1.65586481562838       -0.24668299184881
H            4.19162869065285       -0.34273562157280       -1.43213851711062
H            0.53458719052185        0.64870937884800        0.65636524016823
H           -0.67679765305528       -1.22798134208148       -1.43688821689185
H           -1.45063223741852        1.37643859325960        1.21863417618590
H           -3.73186960485246        2.09011101560774        1.75613108692150
H           -5.65535828843866        1.10775522643232        0.56769478078175
H           -5.28116575381077       -0.60653118400231       -1.16844350141380
H           -2.99427573023393       -1.32745776617108       -1.71351519210469
*
