! B3LYP def2-SVP TightSCF CPCM(Water)

* xyz 0 1
C           -6.86955746065112       -0.66728005871005       -0.09578551746817
C           -5.61161057876501       -1.43341503947460        0.30977030173586
O           -4.56147939431159       -0.61059402105174        0.76209703765202
C           -3.95834892713570        0.18478775615913       -0.23174940591526
C           -2.56253552589841        0.58455233742095        0.24108719323289
O           -1.67428534632760       -0.47360071227699       -0.03547549160265
C           -0.51062491206869       -0.50557820797788        0.74908658735438
C            0.49056003098230        0.61850178438217        0.46260613222702
O            1.06609663212589        0.39799999624383       -0.81158053639598
C            1.63907544969661        1.51825137725002       -1.41875285754176
C            2.92156752210450        2.02691745474513       -0.73644633340462
O            3.92382221889303        1.02397024369686       -0.75294545576414
C            4.09321843090373        0.30027959105732        0.36320013249950
O            3.51789341664420        0.52628863322073        1.40201760063268
C            5.09172801371103       -0.78354972132974        0.17167425178963
C            5.71323470798763       -0.91829996571865       -1.18073154444301
C            5.36896603901313       -1.57207974459005        1.20523578079999
H           -7.67120357499511       -1.37023336543097       -0.30450029364084
H           -7.17918117716214       -0.00853686235485        0.71161352234787
H           -6.69159910565877       -0.06978580238367       -0.98638888709496
H           -5.83365729523450       -2.08726635553087        1.15676016448489
H           -5.26648086096363       -2.05244753828156       -0.53244423892161
H           -4.55472268334151        1.09050710859869       -0.41796950132732
H           -3.85926097949475       -0.37832741872322       -1.16912674923476
H           -2.25341805068884        1.50206286958963       -0.28202111339886
H           -2.60188302728627        0.78408699630034        1.32045954863391
H           -0.03490637928274       -1.45954231625204        0.51456219089384
H           -0.76924733277148       -0.47667019052366        1.81839165180983
H            1.26450711082415        0.60272243676475        1.24241125798528
H           -0.01496650218229        1.59473558421094        0.48415743794497
H            1.88004029019956        1.19804408274410       -2.43569068267560
H            0.92477523252954        2.35631969682755       -1.46077511395176
H            2.71971420940230        2.31782641050686        0.29970566557215
H            3.31640943169205        2.87816842118233       -1.29560974334607
H            4.94444458014199       -1.12055829115142       -1.92443846409412
H            6.20630246849978        0.00987228482108       -1.46279995600202
H            6.43920493864177       -1.72674260445399       -1.18746547659412
H            6.07843355327692       -2.37843022053579        1.13460151809140
H            4.87897483693788       -1.42295362898516        2.15273838715478
*
