! B3LYP def2-SVP TightSCF CPCM(Water)

* xyz 0 1
C           -6.83902563055434        0.06624835761825       -0.04971959540646
C           -5.62344236137529       -0.53869979199702        0.65155985764076
O           -4.60201788812780        0.38967872627675        0.93267143314210
C           -3.93073933672954        0.89439363281728       -0.19847937024125
C           -2.57441115044839        1.44148121586277        0.23498994836217
O           -1.65242804076303        0.38120182305190        0.28679740577111
C           -0.38380912165933        0.77085482437455        0.75533803044982
C            0.56205249462710       -0.41921514060728        0.65540961228783
O            1.00129250917300       -0.53319775597725       -0.68596674997822
C            1.41006317766127       -1.81072496121173       -1.07862988056077
C            2.73283050047948       -2.27203898577818       -0.44056586075176
O            3.78887581741746       -1.39727544272008       -0.80851411692967
C            4.13241552986275       -0.44360742652740        0.06882353199271
O            3.68669089277641       -0.37173635500184        1.19015967298250
C            5.14703912528600        0.49631374423222       -0.47843957186747
C            5.77729568316585        1.38981664941721        0.54181275787831
C            5.42444207356437        0.53493350159823       -1.77702975313440
H           -6.58743370503306        0.38755639420496       -1.05766280944607
H           -7.20210502373420        0.92396081733856        0.51114830316314
H           -7.63029824818044       -0.67604913070852       -0.11037136371988
H           -5.91682416583229       -0.92890727503820        1.62952047139549
H           -5.22168387972928       -1.36689738329331        0.04722220016056
H           -4.51536645483318        1.69964084912141       -0.66698731206813
H           -3.76459659530082        0.09682033920606       -0.93503378367265
H           -2.23113814586983        2.20489933791931       -0.48115805571093
H           -2.68056232513411        1.90946673189007        1.22432680324877
H            0.01448550462624        1.59493460406188        0.14594368075115
H           -0.45167947826896        1.10647530109757        1.80156759789059
H            0.01856414532142       -1.32418624643655        0.95531719763982
H            1.41876239583446       -0.26484610827774        1.32477534722618
H            0.63896670023909       -2.56150164355293       -0.84679803323155
H            1.54169565862219       -1.74823533516730       -2.16204744783182
H            2.64750310754837       -2.29640361395056        0.65070156666013
H            2.99690154427672       -3.26155888440856       -0.81995343895029
H            5.00173236653457        1.91218365498653        1.09945764035542
H            6.34310369421507        0.79438966122680        1.25749206416920
H            6.43932738118869        2.11112175518557        0.07170118423128
H            4.93614781344681       -0.11886312776185       -2.47748314760450
H            6.14737043569796        1.22757368692690       -2.17502101628327
*
