! B3LYP def2-SVP TightSCF CPCM(Water)

* xyz 0 1
C           -7.41267876406096        1.18579106583423       -0.28180269773953
C           -5.91272607809877        1.19205800831148       -0.52580032092876
O           -5.32499863955431        0.16226099599435        0.24079955910719
C           -3.93200993077663        0.07701354412906        0.07626271242827
C           -3.42011231799811       -1.05391678535444        0.97589820033488
O           -2.01788199966934       -1.14649654182114        1.01818484935567
C           -1.43462201947855       -1.76980402280986       -0.10441275833962
C            0.08323884354306       -1.69831785509621        0.03450443461311
O            0.51629440317263       -0.45261462228616       -0.46734877393376
C            1.79447622518835       -0.04948462405393       -0.05763971227800
C            2.92634365559597       -0.83304880873841       -0.74593544053803
O            4.19851194617511       -0.40871463295968       -0.27904501531535
C            4.70816557640646        0.70853721758192       -0.82672279826820
O            4.14062830543201        1.34925948035749       -1.67622643933954
C            6.04710196227959        1.03795783620491       -0.26976546930159
C            6.62216613736374        0.10826070645229        0.74892536828683
C            6.65560173940662        2.13480518936358       -0.71015079463399
H           -7.88848253175268        1.96020285884745       -0.87693177948905
H           -7.82592298824326        0.21874632135354       -0.55378314847523
H           -7.61660618532645        1.36463341096571        0.76987961053180
H           -5.69797588796971        1.03087448098776       -1.59463914940495
H           -5.48072385469642        2.16399871611482       -0.23906008012191
H           -3.44387903524670        1.01999991233734        0.36665959834509
H           -3.68809011227359       -0.12046748479548       -0.97976954165101
H           -3.86786336382776       -2.00446427717338        0.65445652742848
H           -3.73788764971977       -0.84827999028831        2.00069800722586
H           -1.71497370347086       -1.26375499127398       -1.03537797323260
H           -1.75961508130261       -2.82063237654316       -0.15699019541907
H            0.34529020897212       -1.79759352162288        1.09593383995356
H            0.54022661642858       -2.52427936637492       -0.52903694832359
H            1.90533047676335       -0.14242697160630        1.03353833678633
H            1.87522530061158        1.00364986023097       -0.33872280892342
H            2.87031839944291       -1.89651078198116       -0.50482434352595
H            2.85934590575803       -0.68546228377960       -1.82896329036636
H            5.95423788910478        0.02870720710582        1.60434353499257
H            7.59286693731808        0.46417324362918        1.08320274427411
H            6.73238270141691       -0.88871800950404        0.32619979290905
H            7.62580199744988        2.43357177218620       -0.35223274613632
H            6.18349591563511        2.76048612007648       -1.44829989087990
*
