! B3LYP def2-SVP TightSCF CPCM(Water)

* xyz 0 1
O            0.71012147822818       -1.17455286697458        0.99499200404985
C            0.39465336292431       -0.29353033891820        0.23292039390267
O            1.29317128011798        0.44172717980345       -0.44205643936863
C            2.65447164776751        0.11390334814014       -0.21226163669854
C           -1.01199097711489        0.09368009132064       -0.05920819704454
C           -1.30485921909231        0.99449911399030       -0.99084957193356
C           -2.03282164709581       -0.62058948233858        0.76776325466625
H            3.24140663303004        0.85323203241657       -0.75137005748833
H            2.87875432585613        0.14780811854892        0.85615532717378
H            2.87064015459071       -0.89072210411534       -0.58275213071446
H           -0.53683273499948        1.48340148114139       -1.56344666181248
H           -2.32473849757835        1.26714733153222       -1.20578642150834
H           -1.92256986274423       -0.33925021874930        1.81425823690752
H           -3.03899431170214       -0.38178308031255        0.43604577589329
H           -1.87041163218766       -1.69497160548524        0.70559612397557
*
